*SENSE:Maximize
NAME          MODEL
ROWS
 N  OBJ
 E  C0000000
 E  C0000001
 E  C0000002
 E  C0000003
 E  C0000004
 E  C0000005
 E  C0000006
 E  C0000007
 E  C0000008
 E  C0000009
 E  C0000010
 E  C0000011
 E  C0000012
 E  C0000013
 E  C0000014
 E  C0000015
 E  C0000016
 E  C0000017
 E  C0000018
 E  C0000019
 E  C0000020
 E  C0000021
 E  C0000022
 E  C0000023
 E  C0000024
 E  C0000025
 E  C0000026
 E  C0000027
 E  C0000028
 E  C0000029
 E  C0000030
 E  C0000031
 E  C0000032
 E  C0000033
 E  C0000034
 E  C0000035
 E  C0000036
 E  C0000037
 E  C0000038
 E  C0000039
 E  C0000040
 E  C0000041
 E  C0000042
 L  C0000043
 L  C0000044
 L  C0000045
 L  C0000046
 L  C0000047
 L  C0000048
 L  C0000049
 L  C0000050
 L  C0000051
 L  C0000052
 L  C0000053
 L  C0000054
 L  C0000055
 L  C0000056
 L  C0000057
 L  C0000058
 L  C0000059
 L  C0000060
 L  C0000061
 L  C0000062
 L  C0000063
 L  C0000064
 L  C0000065
 L  C0000066
 L  C0000067
 L  C0000068
 L  C0000069
 L  C0000070
 L  C0000071
 L  C0000072
 L  C0000073
 L  C0000074
 L  C0000075
 L  C0000076
 L  C0000077
 L  C0000078
 L  C0000079
 L  C0000080
 L  C0000081
 L  C0000082
 L  C0000083
 L  C0000084
 L  C0000085
 L  C0000086
 L  C0000087
 L  C0000088
 L  C0000089
 L  C0000090
 L  C0000091
 L  C0000092
 L  C0000093
 L  C0000094
 L  C0000095
 L  C0000096
 L  C0000097
 L  C0000098
 L  C0000099
 L  C0000100
 L  C0000101
 L  C0000102
 L  C0000103
 L  C0000104
 L  C0000105
 L  C0000106
 L  C0000107
 L  C0000108
 L  C0000109
 L  C0000110
 L  C0000111
 L  C0000112
 L  C0000113
 L  C0000114
 L  C0000115
 L  C0000116
 L  C0000117
 L  C0000118
 L  C0000119
 L  C0000120
 L  C0000121
 L  C0000122
 L  C0000123
 L  C0000124
 L  C0000125
 L  C0000126
 L  C0000127
 L  C0000128
 G  C0000129
 G  C0000130
 G  C0000131
 G  C0000132
 G  C0000133
 G  C0000134
 G  C0000135
 G  C0000136
 G  C0000137
 G  C0000138
 G  C0000139
 G  C0000140
 G  C0000141
 G  C0000142
 G  C0000143
 G  C0000144
 G  C0000145
 G  C0000146
 G  C0000147
 G  C0000148
 G  C0000149
 G  C0000150
 G  C0000151
 G  C0000152
 G  C0000153
 G  C0000154
 G  C0000155
 G  C0000156
 G  C0000157
 G  C0000158
 G  C0000159
 G  C0000160
 G  C0000161
 G  C0000162
 G  C0000163
 G  C0000164
 G  C0000165
 G  C0000166
 G  C0000167
 G  C0000168
 G  C0000169
 G  C0000170
 G  C0000171
 G  C0000172
 G  C0000173
 G  C0000174
 G  C0000175
 G  C0000176
 G  C0000177
 G  C0000178
 G  C0000179
 G  C0000180
 G  C0000181
 G  C0000182
 G  C0000183
 G  C0000184
 G  C0000185
 G  C0000186
 G  C0000187
 G  C0000188
 G  C0000189
 G  C0000190
 G  C0000191
 G  C0000192
 G  C0000193
 G  C0000194
 G  C0000195
 G  C0000196
 G  C0000197
 G  C0000198
 G  C0000199
 G  C0000200
 G  C0000201
 G  C0000202
 G  C0000203
 G  C0000204
 G  C0000205
 G  C0000206
 G  C0000207
 G  C0000208
 G  C0000209
 G  C0000210
 G  C0000211
 G  C0000212
 G  C0000213
 G  C0000214
 G  C0000215
 G  C0000216
 G  C0000217
 G  C0000218
 G  C0000219
 G  C0000220
 G  C0000221
 G  C0000222
 G  C0000223
 G  C0000224
 G  C0000225
 G  C0000226
 G  C0000227
 G  C0000228
 G  C0000229
 G  C0000230
 G  C0000231
 G  C0000232
 G  C0000233
 G  C0000234
 G  C0000235
 G  C0000236
 G  C0000237
 G  C0000238
 G  C0000239
 G  C0000240
 G  C0000241
 G  C0000242
 G  C0000243
 G  C0000244
 G  C0000245
 G  C0000246
 G  C0000247
 G  C0000248
 G  C0000249
 G  C0000250
 G  C0000251
 G  C0000252
 G  C0000253
 G  C0000254
 G  C0000255
 G  C0000256
 G  C0000257
 G  C0000258
 G  C0000259
 G  C0000260
 G  C0000261
 G  C0000262
 G  C0000263
 G  C0000264
 G  C0000265
 G  C0000266
 G  C0000267
 G  C0000268
 G  C0000269
 G  C0000270
 G  C0000271
 G  C0000272
 G  C0000273
 G  C0000274
 G  C0000275
 G  C0000276
 G  C0000277
 G  C0000278
 G  C0000279
 G  C0000280
 G  C0000281
 G  C0000282
 G  C0000283
 G  C0000284
 G  C0000285
 G  C0000286
 G  C0000287
 G  C0000288
 G  C0000289
 G  C0000290
 G  C0000291
 G  C0000292
 G  C0000293
 G  C0000294
 G  C0000295
 G  C0000296
 G  C0000297
 G  C0000298
 G  C0000299
 G  C0000300
 E  C0000301
 E  C0000302
 E  C0000303
 E  C0000304
 E  C0000305
 E  C0000306
 E  C0000307
 E  C0000308
 E  C0000309
 E  C0000310
 E  C0000311
 E  C0000312
 E  C0000313
 E  C0000314
 E  C0000315
 E  C0000316
 E  C0000317
 E  C0000318
 E  C0000319
 E  C0000320
 E  C0000321
 E  C0000322
 E  C0000323
 E  C0000324
 E  C0000325
 E  C0000326
 E  C0000327
 E  C0000328
 E  C0000329
 E  C0000330
 E  C0000331
 E  C0000332
 E  C0000333
 E  C0000334
 E  C0000335
 E  C0000336
 E  C0000337
 E  C0000338
 E  C0000339
 E  C0000340
 E  C0000341
 E  C0000342
 E  C0000343
 G  C0000344
 L  C0000345
 G  C0000346
 L  C0000347
 G  C0000348
 L  C0000349
 G  C0000350
 L  C0000351
 G  C0000352
 L  C0000353
 G  C0000354
 L  C0000355
 G  C0000356
 L  C0000357
 G  C0000358
 L  C0000359
 G  C0000360
 L  C0000361
 G  C0000362
 L  C0000363
 G  C0000364
 L  C0000365
 G  C0000366
 L  C0000367
 G  C0000368
 L  C0000369
 G  C0000370
 L  C0000371
 G  C0000372
 L  C0000373
 G  C0000374
 L  C0000375
 G  C0000376
 L  C0000377
 G  C0000378
 L  C0000379
 G  C0000380
 L  C0000381
 G  C0000382
 L  C0000383
 G  C0000384
 L  C0000385
 G  C0000386
 L  C0000387
 G  C0000388
 L  C0000389
 G  C0000390
 L  C0000391
 G  C0000392
 L  C0000393
 G  C0000394
 L  C0000395
 G  C0000396
 L  C0000397
 G  C0000398
 L  C0000399
 G  C0000400
 L  C0000401
 G  C0000402
 L  C0000403
 G  C0000404
 L  C0000405
 G  C0000406
 L  C0000407
 G  C0000408
 L  C0000409
 G  C0000410
 L  C0000411
 G  C0000412
 L  C0000413
 G  C0000414
 L  C0000415
 G  C0000416
 L  C0000417
 G  C0000418
 L  C0000419
 G  C0000420
 L  C0000421
 G  C0000422
 L  C0000423
 G  C0000424
 L  C0000425
 G  C0000426
 L  C0000427
 G  C0000428
 L  C0000429
 L  C0000430
 L  C0000431
 L  C0000432
 L  C0000433
 L  C0000434
 L  C0000435
 L  C0000436
 L  C0000437
 L  C0000438
 L  C0000439
 L  C0000440
 L  C0000441
 L  C0000442
 L  C0000443
 L  C0000444
 L  C0000445
 L  C0000446
 L  C0000447
 L  C0000448
 L  C0000449
 L  C0000450
 L  C0000451
 L  C0000452
 L  C0000453
 L  C0000454
 L  C0000455
 L  C0000456
 L  C0000457
 L  C0000458
 L  C0000459
 L  C0000460
 L  C0000461
 L  C0000462
 L  C0000463
 L  C0000464
 L  C0000465
 L  C0000466
 L  C0000467
 L  C0000468
 L  C0000469
 L  C0000470
 L  C0000471
 L  C0000472
 L  C0000473
 L  C0000474
 L  C0000475
 L  C0000476
 L  C0000477
 L  C0000478
 L  C0000479
 L  C0000480
 L  C0000481
 L  C0000482
 L  C0000483
 L  C0000484
 L  C0000485
 L  C0000486
 L  C0000487
 L  C0000488
 L  C0000489
 L  C0000490
 L  C0000491
 L  C0000492
 L  C0000493
 L  C0000494
 L  C0000495
 L  C0000496
 L  C0000497
 L  C0000498
 L  C0000499
 L  C0000500
 L  C0000501
 L  C0000502
 L  C0000503
 L  C0000504
 L  C0000505
 L  C0000506
 L  C0000507
 L  C0000508
 L  C0000509
 L  C0000510
 L  C0000511
 L  C0000512
 L  C0000513
 L  C0000514
 L  C0000515
 L  C0000516
 L  C0000517
 L  C0000518
 L  C0000519
 L  C0000520
 L  C0000521
 L  C0000522
 L  C0000523
 L  C0000524
 L  C0000525
 L  C0000526
 L  C0000527
 L  C0000528
 L  C0000529
 L  C0000530
 L  C0000531
 L  C0000532
 L  C0000533
 L  C0000534
 L  C0000535
 L  C0000536
 L  C0000537
 L  C0000538
 L  C0000539
 L  C0000540
 L  C0000541
 L  C0000542
 L  C0000543
 L  C0000544
 L  C0000545
 L  C0000546
 L  C0000547
 L  C0000548
 L  C0000549
 L  C0000550
 L  C0000551
 L  C0000552
 L  C0000553
 L  C0000554
 L  C0000555
 L  C0000556
 L  C0000557
 L  C0000558
 E  C0000559
 E  C0000560
 E  C0000561
 E  C0000562
 E  C0000563
 E  C0000564
 E  C0000565
 E  C0000566
 E  C0000567
 E  C0000568
 E  C0000569
 E  C0000570
 E  C0000571
 E  C0000572
 E  C0000573
 E  C0000574
 E  C0000575
 E  C0000576
 E  C0000577
 E  C0000578
 E  C0000579
 E  C0000580
 E  C0000581
 E  C0000582
 E  C0000583
 E  C0000584
 E  C0000585
 E  C0000586
 E  C0000587
 E  C0000588
 E  C0000589
 E  C0000590
 E  C0000591
 E  C0000592
 E  C0000593
 E  C0000594
 E  C0000595
 E  C0000596
 E  C0000597
 E  C0000598
 E  C0000599
 E  C0000600
 E  C0000601
 L  C0000602
 L  C0000603
 L  C0000604
 L  C0000605
 L  C0000606
 L  C0000607
 L  C0000608
 L  C0000609
 L  C0000610
 L  C0000611
 L  C0000612
 L  C0000613
 L  C0000614
 L  C0000615
 L  C0000616
 L  C0000617
 L  C0000618
 L  C0000619
 L  C0000620
 L  C0000621
 L  C0000622
 L  C0000623
 L  C0000624
 L  C0000625
 L  C0000626
 L  C0000627
 L  C0000628
 L  C0000629
 L  C0000630
 L  C0000631
 L  C0000632
 L  C0000633
 L  C0000634
 L  C0000635
 L  C0000636
 L  C0000637
 L  C0000638
 L  C0000639
 L  C0000640
 L  C0000641
 L  C0000642
 L  C0000643
 L  C0000644
 L  C0000645
 L  C0000646
 L  C0000647
 L  C0000648
 L  C0000649
 L  C0000650
 L  C0000651
 L  C0000652
 L  C0000653
 L  C0000654
 L  C0000655
 L  C0000656
 L  C0000657
 L  C0000658
 L  C0000659
 L  C0000660
 L  C0000661
 L  C0000662
 L  C0000663
 L  C0000664
 L  C0000665
 L  C0000666
 L  C0000667
 L  C0000668
 L  C0000669
 L  C0000670
 L  C0000671
 L  C0000672
 L  C0000673
 L  C0000674
 L  C0000675
 L  C0000676
 L  C0000677
 L  C0000678
 L  C0000679
 L  C0000680
 L  C0000681
 L  C0000682
 L  C0000683
 L  C0000684
 L  C0000685
 L  C0000686
 L  C0000687
 L  C0000688
 L  C0000689
 L  C0000690
 L  C0000691
 L  C0000692
 L  C0000693
 L  C0000694
 L  C0000695
 L  C0000696
 L  C0000697
 L  C0000698
 L  C0000699
 L  C0000700
 L  C0000701
 L  C0000702
 L  C0000703
 L  C0000704
 L  C0000705
 L  C0000706
 L  C0000707
 L  C0000708
 L  C0000709
 L  C0000710
 L  C0000711
 L  C0000712
 L  C0000713
 L  C0000714
 L  C0000715
 L  C0000716
 L  C0000717
 L  C0000718
 L  C0000719
 L  C0000720
 L  C0000721
 L  C0000722
 L  C0000723
 L  C0000724
 L  C0000725
 L  C0000726
 L  C0000727
 L  C0000728
 L  C0000729
 L  C0000730
 L  C0000731
 L  C0000732
 L  C0000733
 L  C0000734
 L  C0000735
 L  C0000736
 L  C0000737
 L  C0000738
 L  C0000739
 L  C0000740
 L  C0000741
 L  C0000742
 L  C0000743
 L  C0000744
 L  C0000745
 L  C0000746
 L  C0000747
 L  C0000748
 L  C0000749
 L  C0000750
 L  C0000751
 L  C0000752
 L  C0000753
 L  C0000754
 L  C0000755
 L  C0000756
 L  C0000757
 L  C0000758
 L  C0000759
 L  C0000760
 L  C0000761
 L  C0000762
 L  C0000763
 L  C0000764
 L  C0000765
 L  C0000766
 L  C0000767
 L  C0000768
 L  C0000769
 L  C0000770
 L  C0000771
 L  C0000772
 L  C0000773
COLUMNS
    X0000000  C0000000  -1.000000000000e0
    X0000000  C0000301  -9.000000000000e-1
    X0000000  C0000344   1.000000000000e0
    X0000000  C0000345   1.000000000000e0
    X0000000  C0000474   1.000000000000e0
    X0000001  C0000001  -1.000000000000e0
    X0000001  C0000302  -9.000000000000e-1
    X0000001  C0000346   1.000000000000e0
    X0000001  C0000347   1.000000000000e0
    X0000001  C0000476   1.000000000000e0
    X0000002  C0000002  -1.000000000000e0
    X0000002  C0000303  -9.000000000000e-1
    X0000002  C0000348   1.000000000000e0
    X0000002  C0000349   1.000000000000e0
    X0000002  C0000478   1.000000000000e0
    X0000003  C0000003  -1.000000000000e0
    X0000003  C0000304  -9.000000000000e-1
    X0000003  C0000350   1.000000000000e0
    X0000003  C0000351   1.000000000000e0
    X0000003  C0000480   1.000000000000e0
    X0000004  C0000004  -1.000000000000e0
    X0000004  C0000305  -9.000000000000e-1
    X0000004  C0000352   1.000000000000e0
    X0000004  C0000353   1.000000000000e0
    X0000004  C0000482   1.000000000000e0
    X0000005  C0000005  -1.000000000000e0
    X0000005  C0000306  -9.000000000000e-1
    X0000005  C0000354   1.000000000000e0
    X0000005  C0000355   1.000000000000e0
    X0000005  C0000484   1.000000000000e0
    X0000006  C0000006  -1.000000000000e0
    X0000006  C0000307  -9.000000000000e-1
    X0000006  C0000356   1.000000000000e0
    X0000006  C0000357   1.000000000000e0
    X0000006  C0000486   1.000000000000e0
    X0000007  C0000007  -1.000000000000e0
    X0000007  C0000308  -9.000000000000e-1
    X0000007  C0000358   1.000000000000e0
    X0000007  C0000359   1.000000000000e0
    X0000007  C0000488   1.000000000000e0
    X0000008  C0000008  -1.000000000000e0
    X0000008  C0000309  -9.000000000000e-1
    X0000008  C0000360   1.000000000000e0
    X0000008  C0000361   1.000000000000e0
    X0000008  C0000490   1.000000000000e0
    X0000009  C0000009  -1.000000000000e0
    X0000009  C0000310  -9.000000000000e-1
    X0000009  C0000362   1.000000000000e0
    X0000009  C0000363   1.000000000000e0
    X0000009  C0000492   1.000000000000e0
    X0000010  C0000010  -1.000000000000e0
    X0000010  C0000311  -9.000000000000e-1
    X0000010  C0000364   1.000000000000e0
    X0000010  C0000365   1.000000000000e0
    X0000010  C0000494   1.000000000000e0
    X0000011  C0000011  -1.000000000000e0
    X0000011  C0000312  -9.000000000000e-1
    X0000011  C0000366   1.000000000000e0
    X0000011  C0000367   1.000000000000e0
    X0000011  C0000496   1.000000000000e0
    X0000012  C0000012  -1.000000000000e0
    X0000012  C0000313  -9.000000000000e-1
    X0000012  C0000368   1.000000000000e0
    X0000012  C0000369   1.000000000000e0
    X0000012  C0000498   1.000000000000e0
    X0000013  C0000013  -1.000000000000e0
    X0000013  C0000314  -9.000000000000e-1
    X0000013  C0000370   1.000000000000e0
    X0000013  C0000371   1.000000000000e0
    X0000013  C0000500   1.000000000000e0
    X0000014  C0000014  -1.000000000000e0
    X0000014  C0000315  -9.000000000000e-1
    X0000014  C0000372   1.000000000000e0
    X0000014  C0000373   1.000000000000e0
    X0000014  C0000502   1.000000000000e0
    X0000015  C0000015  -1.000000000000e0
    X0000015  C0000316  -9.000000000000e-1
    X0000015  C0000374   1.000000000000e0
    X0000015  C0000375   1.000000000000e0
    X0000015  C0000504   1.000000000000e0
    X0000016  C0000016  -1.000000000000e0
    X0000016  C0000317  -9.000000000000e-1
    X0000016  C0000376   1.000000000000e0
    X0000016  C0000377   1.000000000000e0
    X0000016  C0000506   1.000000000000e0
    X0000017  C0000017  -1.000000000000e0
    X0000017  C0000318  -9.000000000000e-1
    X0000017  C0000378   1.000000000000e0
    X0000017  C0000379   1.000000000000e0
    X0000017  C0000508   1.000000000000e0
    X0000018  C0000018  -1.000000000000e0
    X0000018  C0000319  -9.000000000000e-1
    X0000018  C0000380   1.000000000000e0
    X0000018  C0000381   1.000000000000e0
    X0000018  C0000510   1.000000000000e0
    X0000019  C0000019  -1.000000000000e0
    X0000019  C0000320  -9.000000000000e-1
    X0000019  C0000382   1.000000000000e0
    X0000019  C0000383   1.000000000000e0
    X0000019  C0000512   1.000000000000e0
    X0000020  C0000020  -1.000000000000e0
    X0000020  C0000321  -9.000000000000e-1
    X0000020  C0000384   1.000000000000e0
    X0000020  C0000385   1.000000000000e0
    X0000020  C0000514   1.000000000000e0
    X0000021  C0000021  -1.000000000000e0
    X0000021  C0000322  -9.000000000000e-1
    X0000021  C0000386   1.000000000000e0
    X0000021  C0000387   1.000000000000e0
    X0000021  C0000516   1.000000000000e0
    X0000022  C0000022  -1.000000000000e0
    X0000022  C0000323  -9.000000000000e-1
    X0000022  C0000388   1.000000000000e0
    X0000022  C0000389   1.000000000000e0
    X0000022  C0000518   1.000000000000e0
    X0000023  C0000023  -1.000000000000e0
    X0000023  C0000324  -9.000000000000e-1
    X0000023  C0000390   1.000000000000e0
    X0000023  C0000391   1.000000000000e0
    X0000023  C0000520   1.000000000000e0
    X0000024  C0000024  -1.000000000000e0
    X0000024  C0000325  -9.000000000000e-1
    X0000024  C0000392   1.000000000000e0
    X0000024  C0000393   1.000000000000e0
    X0000024  C0000522   1.000000000000e0
    X0000025  C0000025  -1.000000000000e0
    X0000025  C0000326  -9.000000000000e-1
    X0000025  C0000394   1.000000000000e0
    X0000025  C0000395   1.000000000000e0
    X0000025  C0000524   1.000000000000e0
    X0000026  C0000026  -1.000000000000e0
    X0000026  C0000327  -9.000000000000e-1
    X0000026  C0000396   1.000000000000e0
    X0000026  C0000397   1.000000000000e0
    X0000026  C0000526   1.000000000000e0
    X0000027  C0000027  -1.000000000000e0
    X0000027  C0000328  -9.000000000000e-1
    X0000027  C0000398   1.000000000000e0
    X0000027  C0000399   1.000000000000e0
    X0000027  C0000528   1.000000000000e0
    X0000028  C0000028  -1.000000000000e0
    X0000028  C0000329  -9.000000000000e-1
    X0000028  C0000400   1.000000000000e0
    X0000028  C0000401   1.000000000000e0
    X0000028  C0000530   1.000000000000e0
    X0000029  C0000029  -1.000000000000e0
    X0000029  C0000330  -9.000000000000e-1
    X0000029  C0000402   1.000000000000e0
    X0000029  C0000403   1.000000000000e0
    X0000029  C0000532   1.000000000000e0
    X0000030  C0000030  -1.000000000000e0
    X0000030  C0000331  -9.000000000000e-1
    X0000030  C0000404   1.000000000000e0
    X0000030  C0000405   1.000000000000e0
    X0000030  C0000534   1.000000000000e0
    X0000031  C0000031  -1.000000000000e0
    X0000031  C0000332  -9.000000000000e-1
    X0000031  C0000406   1.000000000000e0
    X0000031  C0000407   1.000000000000e0
    X0000031  C0000536   1.000000000000e0
    X0000032  C0000032  -1.000000000000e0
    X0000032  C0000333  -9.000000000000e-1
    X0000032  C0000408   1.000000000000e0
    X0000032  C0000409   1.000000000000e0
    X0000032  C0000538   1.000000000000e0
    X0000033  C0000033  -1.000000000000e0
    X0000033  C0000334  -9.000000000000e-1
    X0000033  C0000410   1.000000000000e0
    X0000033  C0000411   1.000000000000e0
    X0000033  C0000540   1.000000000000e0
    X0000034  C0000034  -1.000000000000e0
    X0000034  C0000335  -9.000000000000e-1
    X0000034  C0000412   1.000000000000e0
    X0000034  C0000413   1.000000000000e0
    X0000034  C0000542   1.000000000000e0
    X0000035  C0000035  -1.000000000000e0
    X0000035  C0000336  -9.000000000000e-1
    X0000035  C0000414   1.000000000000e0
    X0000035  C0000415   1.000000000000e0
    X0000035  C0000544   1.000000000000e0
    X0000036  C0000036  -1.000000000000e0
    X0000036  C0000337  -9.000000000000e-1
    X0000036  C0000416   1.000000000000e0
    X0000036  C0000417   1.000000000000e0
    X0000036  C0000546   1.000000000000e0
    X0000037  C0000037  -1.000000000000e0
    X0000037  C0000338  -9.000000000000e-1
    X0000037  C0000418   1.000000000000e0
    X0000037  C0000419   1.000000000000e0
    X0000037  C0000548   1.000000000000e0
    X0000038  C0000038  -1.000000000000e0
    X0000038  C0000339  -9.000000000000e-1
    X0000038  C0000420   1.000000000000e0
    X0000038  C0000421   1.000000000000e0
    X0000038  C0000550   1.000000000000e0
    X0000039  C0000039  -1.000000000000e0
    X0000039  C0000340  -9.000000000000e-1
    X0000039  C0000422   1.000000000000e0
    X0000039  C0000423   1.000000000000e0
    X0000039  C0000552   1.000000000000e0
    X0000040  C0000040  -1.000000000000e0
    X0000040  C0000341  -9.000000000000e-1
    X0000040  C0000424   1.000000000000e0
    X0000040  C0000425   1.000000000000e0
    X0000040  C0000554   1.000000000000e0
    X0000041  C0000041  -1.000000000000e0
    X0000041  C0000342  -9.000000000000e-1
    X0000041  C0000426   1.000000000000e0
    X0000041  C0000427   1.000000000000e0
    X0000041  C0000556   1.000000000000e0
    X0000042  C0000042  -1.000000000000e0
    X0000042  C0000343  -9.000000000000e-1
    X0000042  C0000428   1.000000000000e0
    X0000042  C0000429   1.000000000000e0
    X0000042  C0000558   1.000000000000e0
    X0000043  C0000000  -1.000000000000e0
    X0000043  C0000559  -9.000000000000e-1
    X0000043  C0000602   1.000000000000e0
    X0000043  C0000689   1.000000000000e0
    X0000044  C0000001  -1.000000000000e0
    X0000044  C0000560  -9.000000000000e-1
    X0000044  C0000603   1.000000000000e0
    X0000044  C0000691   1.000000000000e0
    X0000045  C0000002  -1.000000000000e0
    X0000045  C0000561  -9.000000000000e-1
    X0000045  C0000604   1.000000000000e0
    X0000045  C0000693   1.000000000000e0
    X0000046  C0000003  -1.000000000000e0
    X0000046  C0000562  -9.000000000000e-1
    X0000046  C0000605   1.000000000000e0
    X0000046  C0000695   1.000000000000e0
    X0000047  C0000004  -1.000000000000e0
    X0000047  C0000563  -9.000000000000e-1
    X0000047  C0000606   1.000000000000e0
    X0000047  C0000697   1.000000000000e0
    X0000048  C0000005  -1.000000000000e0
    X0000048  C0000564  -9.000000000000e-1
    X0000048  C0000607   1.000000000000e0
    X0000048  C0000699   1.000000000000e0
    X0000049  C0000006  -1.000000000000e0
    X0000049  C0000565  -9.000000000000e-1
    X0000049  C0000608   1.000000000000e0
    X0000049  C0000701   1.000000000000e0
    X0000050  C0000007  -1.000000000000e0
    X0000050  C0000566  -9.000000000000e-1
    X0000050  C0000609   1.000000000000e0
    X0000050  C0000703   1.000000000000e0
    X0000051  C0000008  -1.000000000000e0
    X0000051  C0000567  -9.000000000000e-1
    X0000051  C0000610   1.000000000000e0
    X0000051  C0000705   1.000000000000e0
    X0000052  C0000009  -1.000000000000e0
    X0000052  C0000568  -9.000000000000e-1
    X0000052  C0000611   1.000000000000e0
    X0000052  C0000707   1.000000000000e0
    X0000053  C0000010  -1.000000000000e0
    X0000053  C0000569  -9.000000000000e-1
    X0000053  C0000612   1.000000000000e0
    X0000053  C0000709   1.000000000000e0
    X0000054  C0000011  -1.000000000000e0
    X0000054  C0000570  -9.000000000000e-1
    X0000054  C0000613   1.000000000000e0
    X0000054  C0000711   1.000000000000e0
    X0000055  C0000012  -1.000000000000e0
    X0000055  C0000571  -9.000000000000e-1
    X0000055  C0000614   1.000000000000e0
    X0000055  C0000713   1.000000000000e0
    X0000056  C0000013  -1.000000000000e0
    X0000056  C0000572  -9.000000000000e-1
    X0000056  C0000615   1.000000000000e0
    X0000056  C0000715   1.000000000000e0
    X0000057  C0000014  -1.000000000000e0
    X0000057  C0000573  -9.000000000000e-1
    X0000057  C0000616   1.000000000000e0
    X0000057  C0000717   1.000000000000e0
    X0000058  C0000015  -1.000000000000e0
    X0000058  C0000574  -9.000000000000e-1
    X0000058  C0000617   1.000000000000e0
    X0000058  C0000719   1.000000000000e0
    X0000059  C0000016  -1.000000000000e0
    X0000059  C0000575  -9.000000000000e-1
    X0000059  C0000618   1.000000000000e0
    X0000059  C0000721   1.000000000000e0
    X0000060  C0000017  -1.000000000000e0
    X0000060  C0000576  -9.000000000000e-1
    X0000060  C0000619   1.000000000000e0
    X0000060  C0000723   1.000000000000e0
    X0000061  C0000018  -1.000000000000e0
    X0000061  C0000577  -9.000000000000e-1
    X0000061  C0000620   1.000000000000e0
    X0000061  C0000725   1.000000000000e0
    X0000062  C0000019  -1.000000000000e0
    X0000062  C0000578  -9.000000000000e-1
    X0000062  C0000621   1.000000000000e0
    X0000062  C0000727   1.000000000000e0
    X0000063  C0000020  -1.000000000000e0
    X0000063  C0000579  -9.000000000000e-1
    X0000063  C0000622   1.000000000000e0
    X0000063  C0000729   1.000000000000e0
    X0000064  C0000021  -1.000000000000e0
    X0000064  C0000580  -9.000000000000e-1
    X0000064  C0000623   1.000000000000e0
    X0000064  C0000731   1.000000000000e0
    X0000065  C0000022  -1.000000000000e0
    X0000065  C0000581  -9.000000000000e-1
    X0000065  C0000624   1.000000000000e0
    X0000065  C0000733   1.000000000000e0
    X0000066  C0000023  -1.000000000000e0
    X0000066  C0000582  -9.000000000000e-1
    X0000066  C0000625   1.000000000000e0
    X0000066  C0000735   1.000000000000e0
    X0000067  C0000024  -1.000000000000e0
    X0000067  C0000583  -9.000000000000e-1
    X0000067  C0000626   1.000000000000e0
    X0000067  C0000737   1.000000000000e0
    X0000068  C0000025  -1.000000000000e0
    X0000068  C0000584  -9.000000000000e-1
    X0000068  C0000627   1.000000000000e0
    X0000068  C0000739   1.000000000000e0
    X0000069  C0000026  -1.000000000000e0
    X0000069  C0000585  -9.000000000000e-1
    X0000069  C0000628   1.000000000000e0
    X0000069  C0000741   1.000000000000e0
    X0000070  C0000027  -1.000000000000e0
    X0000070  C0000586  -9.000000000000e-1
    X0000070  C0000629   1.000000000000e0
    X0000070  C0000743   1.000000000000e0
    X0000071  C0000028  -1.000000000000e0
    X0000071  C0000587  -9.000000000000e-1
    X0000071  C0000630   1.000000000000e0
    X0000071  C0000745   1.000000000000e0
    X0000072  C0000029  -1.000000000000e0
    X0000072  C0000588  -9.000000000000e-1
    X0000072  C0000631   1.000000000000e0
    X0000072  C0000747   1.000000000000e0
    X0000073  C0000030  -1.000000000000e0
    X0000073  C0000589  -9.000000000000e-1
    X0000073  C0000632   1.000000000000e0
    X0000073  C0000749   1.000000000000e0
    X0000074  C0000031  -1.000000000000e0
    X0000074  C0000590  -9.000000000000e-1
    X0000074  C0000633   1.000000000000e0
    X0000074  C0000751   1.000000000000e0
    X0000075  C0000032  -1.000000000000e0
    X0000075  C0000591  -9.000000000000e-1
    X0000075  C0000634   1.000000000000e0
    X0000075  C0000753   1.000000000000e0
    X0000076  C0000033  -1.000000000000e0
    X0000076  C0000592  -9.000000000000e-1
    X0000076  C0000635   1.000000000000e0
    X0000076  C0000755   1.000000000000e0
    X0000077  C0000034  -1.000000000000e0
    X0000077  C0000593  -9.000000000000e-1
    X0000077  C0000636   1.000000000000e0
    X0000077  C0000757   1.000000000000e0
    X0000078  C0000035  -1.000000000000e0
    X0000078  C0000594  -9.000000000000e-1
    X0000078  C0000637   1.000000000000e0
    X0000078  C0000759   1.000000000000e0
    X0000079  C0000036  -1.000000000000e0
    X0000079  C0000595  -9.000000000000e-1
    X0000079  C0000638   1.000000000000e0
    X0000079  C0000761   1.000000000000e0
    X0000080  C0000037  -1.000000000000e0
    X0000080  C0000596  -9.000000000000e-1
    X0000080  C0000639   1.000000000000e0
    X0000080  C0000763   1.000000000000e0
    X0000081  C0000038  -1.000000000000e0
    X0000081  C0000597  -9.000000000000e-1
    X0000081  C0000640   1.000000000000e0
    X0000081  C0000765   1.000000000000e0
    X0000082  C0000039  -1.000000000000e0
    X0000082  C0000598  -9.000000000000e-1
    X0000082  C0000641   1.000000000000e0
    X0000082  C0000767   1.000000000000e0
    X0000083  C0000040  -1.000000000000e0
    X0000083  C0000599  -9.000000000000e-1
    X0000083  C0000642   1.000000000000e0
    X0000083  C0000769   1.000000000000e0
    X0000084  C0000041  -1.000000000000e0
    X0000084  C0000600  -9.000000000000e-1
    X0000084  C0000643   1.000000000000e0
    X0000084  C0000771   1.000000000000e0
    X0000085  C0000042  -1.000000000000e0
    X0000085  C0000601  -9.000000000000e-1
    X0000085  C0000644   1.000000000000e0
    X0000085  C0000773   1.000000000000e0
    X0000086  C0000000   1.000000000000e0
    X0000086  C0000301   1.111111111111e0
    X0000086  C0000430   1.000000000000e0
    X0000086  C0000473   1.000000000000e0
    X0000087  C0000001   1.000000000000e0
    X0000087  C0000302   1.111111111111e0
    X0000087  C0000431   1.000000000000e0
    X0000087  C0000475   1.000000000000e0
    X0000088  C0000002   1.000000000000e0
    X0000088  C0000303   1.111111111111e0
    X0000088  C0000432   1.000000000000e0
    X0000088  C0000477   1.000000000000e0
    X0000089  C0000003   1.000000000000e0
    X0000089  C0000304   1.111111111111e0
    X0000089  C0000433   1.000000000000e0
    X0000089  C0000479   1.000000000000e0
    X0000090  C0000004   1.000000000000e0
    X0000090  C0000305   1.111111111111e0
    X0000090  C0000434   1.000000000000e0
    X0000090  C0000481   1.000000000000e0
    X0000091  C0000005   1.000000000000e0
    X0000091  C0000306   1.111111111111e0
    X0000091  C0000435   1.000000000000e0
    X0000091  C0000483   1.000000000000e0
    X0000092  C0000006   1.000000000000e0
    X0000092  C0000307   1.111111111111e0
    X0000092  C0000436   1.000000000000e0
    X0000092  C0000485   1.000000000000e0
    X0000093  C0000007   1.000000000000e0
    X0000093  C0000308   1.111111111111e0
    X0000093  C0000437   1.000000000000e0
    X0000093  C0000487   1.000000000000e0
    X0000094  C0000008   1.000000000000e0
    X0000094  C0000309   1.111111111111e0
    X0000094  C0000438   1.000000000000e0
    X0000094  C0000489   1.000000000000e0
    X0000095  C0000009   1.000000000000e0
    X0000095  C0000310   1.111111111111e0
    X0000095  C0000439   1.000000000000e0
    X0000095  C0000491   1.000000000000e0
    X0000096  C0000010   1.000000000000e0
    X0000096  C0000311   1.111111111111e0
    X0000096  C0000440   1.000000000000e0
    X0000096  C0000493   1.000000000000e0
    X0000097  C0000011   1.000000000000e0
    X0000097  C0000312   1.111111111111e0
    X0000097  C0000441   1.000000000000e0
    X0000097  C0000495   1.000000000000e0
    X0000098  C0000012   1.000000000000e0
    X0000098  C0000313   1.111111111111e0
    X0000098  C0000442   1.000000000000e0
    X0000098  C0000497   1.000000000000e0
    X0000099  C0000013   1.000000000000e0
    X0000099  C0000314   1.111111111111e0
    X0000099  C0000443   1.000000000000e0
    X0000099  C0000499   1.000000000000e0
    X0000100  C0000014   1.000000000000e0
    X0000100  C0000315   1.111111111111e0
    X0000100  C0000444   1.000000000000e0
    X0000100  C0000501   1.000000000000e0
    X0000101  C0000015   1.000000000000e0
    X0000101  C0000316   1.111111111111e0
    X0000101  C0000445   1.000000000000e0
    X0000101  C0000503   1.000000000000e0
    X0000102  C0000016   1.000000000000e0
    X0000102  C0000317   1.111111111111e0
    X0000102  C0000446   1.000000000000e0
    X0000102  C0000505   1.000000000000e0
    X0000103  C0000017   1.000000000000e0
    X0000103  C0000318   1.111111111111e0
    X0000103  C0000447   1.000000000000e0
    X0000103  C0000507   1.000000000000e0
    X0000104  C0000018   1.000000000000e0
    X0000104  C0000319   1.111111111111e0
    X0000104  C0000448   1.000000000000e0
    X0000104  C0000509   1.000000000000e0
    X0000105  C0000019   1.000000000000e0
    X0000105  C0000320   1.111111111111e0
    X0000105  C0000449   1.000000000000e0
    X0000105  C0000511   1.000000000000e0
    X0000106  C0000020   1.000000000000e0
    X0000106  C0000321   1.111111111111e0
    X0000106  C0000450   1.000000000000e0
    X0000106  C0000513   1.000000000000e0
    X0000107  C0000021   1.000000000000e0
    X0000107  C0000322   1.111111111111e0
    X0000107  C0000451   1.000000000000e0
    X0000107  C0000515   1.000000000000e0
    X0000108  C0000022   1.000000000000e0
    X0000108  C0000323   1.111111111111e0
    X0000108  C0000452   1.000000000000e0
    X0000108  C0000517   1.000000000000e0
    X0000109  C0000023   1.000000000000e0
    X0000109  C0000324   1.111111111111e0
    X0000109  C0000453   1.000000000000e0
    X0000109  C0000519   1.000000000000e0
    X0000110  C0000024   1.000000000000e0
    X0000110  C0000325   1.111111111111e0
    X0000110  C0000454   1.000000000000e0
    X0000110  C0000521   1.000000000000e0
    X0000111  C0000025   1.000000000000e0
    X0000111  C0000326   1.111111111111e0
    X0000111  C0000455   1.000000000000e0
    X0000111  C0000523   1.000000000000e0
    X0000112  C0000026   1.000000000000e0
    X0000112  C0000327   1.111111111111e0
    X0000112  C0000456   1.000000000000e0
    X0000112  C0000525   1.000000000000e0
    X0000113  C0000027   1.000000000000e0
    X0000113  C0000328   1.111111111111e0
    X0000113  C0000457   1.000000000000e0
    X0000113  C0000527   1.000000000000e0
    X0000114  C0000028   1.000000000000e0
    X0000114  C0000329   1.111111111111e0
    X0000114  C0000458   1.000000000000e0
    X0000114  C0000529   1.000000000000e0
    X0000115  C0000029   1.000000000000e0
    X0000115  C0000330   1.111111111111e0
    X0000115  C0000459   1.000000000000e0
    X0000115  C0000531   1.000000000000e0
    X0000116  C0000030   1.000000000000e0
    X0000116  C0000331   1.111111111111e0
    X0000116  C0000460   1.000000000000e0
    X0000116  C0000533   1.000000000000e0
    X0000117  C0000031   1.000000000000e0
    X0000117  C0000332   1.111111111111e0
    X0000117  C0000461   1.000000000000e0
    X0000117  C0000535   1.000000000000e0
    X0000118  C0000032   1.000000000000e0
    X0000118  C0000333   1.111111111111e0
    X0000118  C0000462   1.000000000000e0
    X0000118  C0000537   1.000000000000e0
    X0000119  C0000033   1.000000000000e0
    X0000119  C0000334   1.111111111111e0
    X0000119  C0000463   1.000000000000e0
    X0000119  C0000539   1.000000000000e0
    X0000120  C0000034   1.000000000000e0
    X0000120  C0000335   1.111111111111e0
    X0000120  C0000464   1.000000000000e0
    X0000120  C0000541   1.000000000000e0
    X0000121  C0000035   1.000000000000e0
    X0000121  C0000336   1.111111111111e0
    X0000121  C0000465   1.000000000000e0
    X0000121  C0000543   1.000000000000e0
    X0000122  C0000036   1.000000000000e0
    X0000122  C0000337   1.111111111111e0
    X0000122  C0000466   1.000000000000e0
    X0000122  C0000545   1.000000000000e0
    X0000123  C0000037   1.000000000000e0
    X0000123  C0000338   1.111111111111e0
    X0000123  C0000467   1.000000000000e0
    X0000123  C0000547   1.000000000000e0
    X0000124  C0000038   1.000000000000e0
    X0000124  C0000339   1.111111111111e0
    X0000124  C0000468   1.000000000000e0
    X0000124  C0000549   1.000000000000e0
    X0000125  C0000039   1.000000000000e0
    X0000125  C0000340   1.111111111111e0
    X0000125  C0000469   1.000000000000e0
    X0000125  C0000551   1.000000000000e0
    X0000126  C0000040   1.000000000000e0
    X0000126  C0000341   1.111111111111e0
    X0000126  C0000470   1.000000000000e0
    X0000126  C0000553   1.000000000000e0
    X0000127  C0000041   1.000000000000e0
    X0000127  C0000342   1.111111111111e0
    X0000127  C0000471   1.000000000000e0
    X0000127  C0000555   1.000000000000e0
    X0000128  C0000042   1.000000000000e0
    X0000128  C0000343   1.111111111111e0
    X0000128  C0000472   1.000000000000e0
    X0000128  C0000557   1.000000000000e0
    X0000129  C0000000   1.000000000000e0
    X0000129  C0000559   1.111111111111e0
    X0000129  C0000645   1.000000000000e0
    X0000129  C0000688   1.000000000000e0
    X0000130  C0000001   1.000000000000e0
    X0000130  C0000560   1.111111111111e0
    X0000130  C0000646   1.000000000000e0
    X0000130  C0000690   1.000000000000e0
    X0000131  C0000002   1.000000000000e0
    X0000131  C0000561   1.111111111111e0
    X0000131  C0000647   1.000000000000e0
    X0000131  C0000692   1.000000000000e0
    X0000132  C0000003   1.000000000000e0
    X0000132  C0000562   1.111111111111e0
    X0000132  C0000648   1.000000000000e0
    X0000132  C0000694   1.000000000000e0
    X0000133  C0000004   1.000000000000e0
    X0000133  C0000563   1.111111111111e0
    X0000133  C0000649   1.000000000000e0
    X0000133  C0000696   1.000000000000e0
    X0000134  C0000005   1.000000000000e0
    X0000134  C0000564   1.111111111111e0
    X0000134  C0000650   1.000000000000e0
    X0000134  C0000698   1.000000000000e0
    X0000135  C0000006   1.000000000000e0
    X0000135  C0000565   1.111111111111e0
    X0000135  C0000651   1.000000000000e0
    X0000135  C0000700   1.000000000000e0
    X0000136  C0000007   1.000000000000e0
    X0000136  C0000566   1.111111111111e0
    X0000136  C0000652   1.000000000000e0
    X0000136  C0000702   1.000000000000e0
    X0000137  C0000008   1.000000000000e0
    X0000137  C0000567   1.111111111111e0
    X0000137  C0000653   1.000000000000e0
    X0000137  C0000704   1.000000000000e0
    X0000138  C0000009   1.000000000000e0
    X0000138  C0000568   1.111111111111e0
    X0000138  C0000654   1.000000000000e0
    X0000138  C0000706   1.000000000000e0
    X0000139  C0000010   1.000000000000e0
    X0000139  C0000569   1.111111111111e0
    X0000139  C0000655   1.000000000000e0
    X0000139  C0000708   1.000000000000e0
    X0000140  C0000011   1.000000000000e0
    X0000140  C0000570   1.111111111111e0
    X0000140  C0000656   1.000000000000e0
    X0000140  C0000710   1.000000000000e0
    X0000141  C0000012   1.000000000000e0
    X0000141  C0000571   1.111111111111e0
    X0000141  C0000657   1.000000000000e0
    X0000141  C0000712   1.000000000000e0
    X0000142  C0000013   1.000000000000e0
    X0000142  C0000572   1.111111111111e0
    X0000142  C0000658   1.000000000000e0
    X0000142  C0000714   1.000000000000e0
    X0000143  C0000014   1.000000000000e0
    X0000143  C0000573   1.111111111111e0
    X0000143  C0000659   1.000000000000e0
    X0000143  C0000716   1.000000000000e0
    X0000144  C0000015   1.000000000000e0
    X0000144  C0000574   1.111111111111e0
    X0000144  C0000660   1.000000000000e0
    X0000144  C0000718   1.000000000000e0
    X0000145  C0000016   1.000000000000e0
    X0000145  C0000575   1.111111111111e0
    X0000145  C0000661   1.000000000000e0
    X0000145  C0000720   1.000000000000e0
    X0000146  C0000017   1.000000000000e0
    X0000146  C0000576   1.111111111111e0
    X0000146  C0000662   1.000000000000e0
    X0000146  C0000722   1.000000000000e0
    X0000147  C0000018   1.000000000000e0
    X0000147  C0000577   1.111111111111e0
    X0000147  C0000663   1.000000000000e0
    X0000147  C0000724   1.000000000000e0
    X0000148  C0000019   1.000000000000e0
    X0000148  C0000578   1.111111111111e0
    X0000148  C0000664   1.000000000000e0
    X0000148  C0000726   1.000000000000e0
    X0000149  C0000020   1.000000000000e0
    X0000149  C0000579   1.111111111111e0
    X0000149  C0000665   1.000000000000e0
    X0000149  C0000728   1.000000000000e0
    X0000150  C0000021   1.000000000000e0
    X0000150  C0000580   1.111111111111e0
    X0000150  C0000666   1.000000000000e0
    X0000150  C0000730   1.000000000000e0
    X0000151  C0000022   1.000000000000e0
    X0000151  C0000581   1.111111111111e0
    X0000151  C0000667   1.000000000000e0
    X0000151  C0000732   1.000000000000e0
    X0000152  C0000023   1.000000000000e0
    X0000152  C0000582   1.111111111111e0
    X0000152  C0000668   1.000000000000e0
    X0000152  C0000734   1.000000000000e0
    X0000153  C0000024   1.000000000000e0
    X0000153  C0000583   1.111111111111e0
    X0000153  C0000669   1.000000000000e0
    X0000153  C0000736   1.000000000000e0
    X0000154  C0000025   1.000000000000e0
    X0000154  C0000584   1.111111111111e0
    X0000154  C0000670   1.000000000000e0
    X0000154  C0000738   1.000000000000e0
    X0000155  C0000026   1.000000000000e0
    X0000155  C0000585   1.111111111111e0
    X0000155  C0000671   1.000000000000e0
    X0000155  C0000740   1.000000000000e0
    X0000156  C0000027   1.000000000000e0
    X0000156  C0000586   1.111111111111e0
    X0000156  C0000672   1.000000000000e0
    X0000156  C0000742   1.000000000000e0
    X0000157  C0000028   1.000000000000e0
    X0000157  C0000587   1.111111111111e0
    X0000157  C0000673   1.000000000000e0
    X0000157  C0000744   1.000000000000e0
    X0000158  C0000029   1.000000000000e0
    X0000158  C0000588   1.111111111111e0
    X0000158  C0000674   1.000000000000e0
    X0000158  C0000746   1.000000000000e0
    X0000159  C0000030   1.000000000000e0
    X0000159  C0000589   1.111111111111e0
    X0000159  C0000675   1.000000000000e0
    X0000159  C0000748   1.000000000000e0
    X0000160  C0000031   1.000000000000e0
    X0000160  C0000590   1.111111111111e0
    X0000160  C0000676   1.000000000000e0
    X0000160  C0000750   1.000000000000e0
    X0000161  C0000032   1.000000000000e0
    X0000161  C0000591   1.111111111111e0
    X0000161  C0000677   1.000000000000e0
    X0000161  C0000752   1.000000000000e0
    X0000162  C0000033   1.000000000000e0
    X0000162  C0000592   1.111111111111e0
    X0000162  C0000678   1.000000000000e0
    X0000162  C0000754   1.000000000000e0
    X0000163  C0000034   1.000000000000e0
    X0000163  C0000593   1.111111111111e0
    X0000163  C0000679   1.000000000000e0
    X0000163  C0000756   1.000000000000e0
    X0000164  C0000035   1.000000000000e0
    X0000164  C0000594   1.111111111111e0
    X0000164  C0000680   1.000000000000e0
    X0000164  C0000758   1.000000000000e0
    X0000165  C0000036   1.000000000000e0
    X0000165  C0000595   1.111111111111e0
    X0000165  C0000681   1.000000000000e0
    X0000165  C0000760   1.000000000000e0
    X0000166  C0000037   1.000000000000e0
    X0000166  C0000596   1.111111111111e0
    X0000166  C0000682   1.000000000000e0
    X0000166  C0000762   1.000000000000e0
    X0000167  C0000038   1.000000000000e0
    X0000167  C0000597   1.111111111111e0
    X0000167  C0000683   1.000000000000e0
    X0000167  C0000764   1.000000000000e0
    X0000168  C0000039   1.000000000000e0
    X0000168  C0000598   1.111111111111e0
    X0000168  C0000684   1.000000000000e0
    X0000168  C0000766   1.000000000000e0
    X0000169  C0000040   1.000000000000e0
    X0000169  C0000599   1.111111111111e0
    X0000169  C0000685   1.000000000000e0
    X0000169  C0000768   1.000000000000e0
    X0000170  C0000041   1.000000000000e0
    X0000170  C0000600   1.111111111111e0
    X0000170  C0000686   1.000000000000e0
    X0000170  C0000770   1.000000000000e0
    X0000171  C0000042   1.000000000000e0
    X0000171  C0000601   1.111111111111e0
    X0000171  C0000687   1.000000000000e0
    X0000171  C0000772   1.000000000000e0
    X0000172  C0000129  -1.000000000000e0
    X0000172  C0000130   1.000000000000e0
    X0000172  C0000301   1.000000000000e0
    X0000172  C0000302  -1.000000000000e0
    X0000173  C0000131  -1.000000000000e0
    X0000173  C0000132   1.000000000000e0
    X0000173  C0000302   1.000000000000e0
    X0000173  C0000303  -1.000000000000e0
    X0000174  C0000133  -1.000000000000e0
    X0000174  C0000134   1.000000000000e0
    X0000174  C0000303   1.000000000000e0
    X0000174  C0000304  -1.000000000000e0
    X0000175  C0000135  -1.000000000000e0
    X0000175  C0000136   1.000000000000e0
    X0000175  C0000304   1.000000000000e0
    X0000175  C0000305  -1.000000000000e0
    X0000176  C0000137  -1.000000000000e0
    X0000176  C0000138   1.000000000000e0
    X0000176  C0000305   1.000000000000e0
    X0000176  C0000306  -1.000000000000e0
    X0000177  C0000139  -1.000000000000e0
    X0000177  C0000140   1.000000000000e0
    X0000177  C0000306   1.000000000000e0
    X0000177  C0000307  -1.000000000000e0
    X0000178  C0000141  -1.000000000000e0
    X0000178  C0000142   1.000000000000e0
    X0000178  C0000307   1.000000000000e0
    X0000178  C0000308  -1.000000000000e0
    X0000179  C0000143  -1.000000000000e0
    X0000179  C0000144   1.000000000000e0
    X0000179  C0000308   1.000000000000e0
    X0000179  C0000309  -1.000000000000e0
    X0000180  C0000145  -1.000000000000e0
    X0000180  C0000146   1.000000000000e0
    X0000180  C0000309   1.000000000000e0
    X0000180  C0000310  -1.000000000000e0
    X0000181  C0000147  -1.000000000000e0
    X0000181  C0000148   1.000000000000e0
    X0000181  C0000310   1.000000000000e0
    X0000181  C0000311  -1.000000000000e0
    X0000182  C0000149  -1.000000000000e0
    X0000182  C0000150   1.000000000000e0
    X0000182  C0000311   1.000000000000e0
    X0000182  C0000312  -1.000000000000e0
    X0000183  C0000151  -1.000000000000e0
    X0000183  C0000152   1.000000000000e0
    X0000183  C0000312   1.000000000000e0
    X0000183  C0000313  -1.000000000000e0
    X0000184  C0000153  -1.000000000000e0
    X0000184  C0000154   1.000000000000e0
    X0000184  C0000313   1.000000000000e0
    X0000184  C0000314  -1.000000000000e0
    X0000185  C0000155  -1.000000000000e0
    X0000185  C0000156   1.000000000000e0
    X0000185  C0000314   1.000000000000e0
    X0000185  C0000315  -1.000000000000e0
    X0000186  C0000157  -1.000000000000e0
    X0000186  C0000158   1.000000000000e0
    X0000186  C0000315   1.000000000000e0
    X0000186  C0000316  -1.000000000000e0
    X0000187  C0000159  -1.000000000000e0
    X0000187  C0000160   1.000000000000e0
    X0000187  C0000316   1.000000000000e0
    X0000187  C0000317  -1.000000000000e0
    X0000188  C0000161  -1.000000000000e0
    X0000188  C0000162   1.000000000000e0
    X0000188  C0000317   1.000000000000e0
    X0000188  C0000318  -1.000000000000e0
    X0000189  C0000163  -1.000000000000e0
    X0000189  C0000164   1.000000000000e0
    X0000189  C0000318   1.000000000000e0
    X0000189  C0000319  -1.000000000000e0
    X0000190  C0000165  -1.000000000000e0
    X0000190  C0000166   1.000000000000e0
    X0000190  C0000319   1.000000000000e0
    X0000190  C0000320  -1.000000000000e0
    X0000191  C0000167  -1.000000000000e0
    X0000191  C0000168   1.000000000000e0
    X0000191  C0000320   1.000000000000e0
    X0000191  C0000321  -1.000000000000e0
    X0000192  C0000169  -1.000000000000e0
    X0000192  C0000170   1.000000000000e0
    X0000192  C0000321   1.000000000000e0
    X0000192  C0000322  -1.000000000000e0
    X0000193  C0000171  -1.000000000000e0
    X0000193  C0000172   1.000000000000e0
    X0000193  C0000322   1.000000000000e0
    X0000193  C0000323  -1.000000000000e0
    X0000194  C0000173  -1.000000000000e0
    X0000194  C0000174   1.000000000000e0
    X0000194  C0000323   1.000000000000e0
    X0000194  C0000324  -1.000000000000e0
    X0000195  C0000175  -1.000000000000e0
    X0000195  C0000176   1.000000000000e0
    X0000195  C0000324   1.000000000000e0
    X0000195  C0000325  -1.000000000000e0
    X0000196  C0000177  -1.000000000000e0
    X0000196  C0000178   1.000000000000e0
    X0000196  C0000325   1.000000000000e0
    X0000196  C0000326  -1.000000000000e0
    X0000197  C0000179  -1.000000000000e0
    X0000197  C0000180   1.000000000000e0
    X0000197  C0000326   1.000000000000e0
    X0000197  C0000327  -1.000000000000e0
    X0000198  C0000181  -1.000000000000e0
    X0000198  C0000182   1.000000000000e0
    X0000198  C0000327   1.000000000000e0
    X0000198  C0000328  -1.000000000000e0
    X0000199  C0000183  -1.000000000000e0
    X0000199  C0000184   1.000000000000e0
    X0000199  C0000328   1.000000000000e0
    X0000199  C0000329  -1.000000000000e0
    X0000200  C0000185  -1.000000000000e0
    X0000200  C0000186   1.000000000000e0
    X0000200  C0000329   1.000000000000e0
    X0000200  C0000330  -1.000000000000e0
    X0000201  C0000187  -1.000000000000e0
    X0000201  C0000188   1.000000000000e0
    X0000201  C0000330   1.000000000000e0
    X0000201  C0000331  -1.000000000000e0
    X0000202  C0000189  -1.000000000000e0
    X0000202  C0000190   1.000000000000e0
    X0000202  C0000331   1.000000000000e0
    X0000202  C0000332  -1.000000000000e0
    X0000203  C0000191  -1.000000000000e0
    X0000203  C0000192   1.000000000000e0
    X0000203  C0000332   1.000000000000e0
    X0000203  C0000333  -1.000000000000e0
    X0000204  C0000193  -1.000000000000e0
    X0000204  C0000194   1.000000000000e0
    X0000204  C0000333   1.000000000000e0
    X0000204  C0000334  -1.000000000000e0
    X0000205  C0000195  -1.000000000000e0
    X0000205  C0000196   1.000000000000e0
    X0000205  C0000334   1.000000000000e0
    X0000205  C0000335  -1.000000000000e0
    X0000206  C0000197  -1.000000000000e0
    X0000206  C0000198   1.000000000000e0
    X0000206  C0000335   1.000000000000e0
    X0000206  C0000336  -1.000000000000e0
    X0000207  C0000199  -1.000000000000e0
    X0000207  C0000200   1.000000000000e0
    X0000207  C0000336   1.000000000000e0
    X0000207  C0000337  -1.000000000000e0
    X0000208  C0000201  -1.000000000000e0
    X0000208  C0000202   1.000000000000e0
    X0000208  C0000337   1.000000000000e0
    X0000208  C0000338  -1.000000000000e0
    X0000209  C0000203  -1.000000000000e0
    X0000209  C0000204   1.000000000000e0
    X0000209  C0000338   1.000000000000e0
    X0000209  C0000339  -1.000000000000e0
    X0000210  C0000205  -1.000000000000e0
    X0000210  C0000206   1.000000000000e0
    X0000210  C0000339   1.000000000000e0
    X0000210  C0000340  -1.000000000000e0
    X0000211  C0000207  -1.000000000000e0
    X0000211  C0000208   1.000000000000e0
    X0000211  C0000340   1.000000000000e0
    X0000211  C0000341  -1.000000000000e0
    X0000212  C0000209  -1.000000000000e0
    X0000212  C0000210   1.000000000000e0
    X0000212  C0000341   1.000000000000e0
    X0000212  C0000342  -1.000000000000e0
    X0000213  C0000211  -1.000000000000e0
    X0000213  C0000212   1.000000000000e0
    X0000213  C0000342   1.000000000000e0
    X0000213  C0000343  -1.000000000000e0
    X0000214  C0000213  -1.000000000000e0
    X0000214  C0000214   1.000000000000e0
    X0000214  C0000343   1.000000000000e0
    X0000214  OBJ       -8.910000000000e2
    X0000215  C0000215  -1.000000000000e0
    X0000215  C0000216   1.000000000000e0
    X0000215  C0000559   1.000000000000e0
    X0000215  C0000560  -1.000000000000e0
    X0000216  C0000217  -1.000000000000e0
    X0000216  C0000218   1.000000000000e0
    X0000216  C0000560   1.000000000000e0
    X0000216  C0000561  -1.000000000000e0
    X0000217  C0000219  -1.000000000000e0
    X0000217  C0000220   1.000000000000e0
    X0000217  C0000561   1.000000000000e0
    X0000217  C0000562  -1.000000000000e0
    X0000218  C0000221  -1.000000000000e0
    X0000218  C0000222   1.000000000000e0
    X0000218  C0000562   1.000000000000e0
    X0000218  C0000563  -1.000000000000e0
    X0000219  C0000223  -1.000000000000e0
    X0000219  C0000224   1.000000000000e0
    X0000219  C0000563   1.000000000000e0
    X0000219  C0000564  -1.000000000000e0
    X0000220  C0000225  -1.000000000000e0
    X0000220  C0000226   1.000000000000e0
    X0000220  C0000564   1.000000000000e0
    X0000220  C0000565  -1.000000000000e0
    X0000221  C0000227  -1.000000000000e0
    X0000221  C0000228   1.000000000000e0
    X0000221  C0000565   1.000000000000e0
    X0000221  C0000566  -1.000000000000e0
    X0000222  C0000229  -1.000000000000e0
    X0000222  C0000230   1.000000000000e0
    X0000222  C0000566   1.000000000000e0
    X0000222  C0000567  -1.000000000000e0
    X0000223  C0000231  -1.000000000000e0
    X0000223  C0000232   1.000000000000e0
    X0000223  C0000567   1.000000000000e0
    X0000223  C0000568  -1.000000000000e0
    X0000224  C0000233  -1.000000000000e0
    X0000224  C0000234   1.000000000000e0
    X0000224  C0000568   1.000000000000e0
    X0000224  C0000569  -1.000000000000e0
    X0000225  C0000235  -1.000000000000e0
    X0000225  C0000236   1.000000000000e0
    X0000225  C0000569   1.000000000000e0
    X0000225  C0000570  -1.000000000000e0
    X0000226  C0000237  -1.000000000000e0
    X0000226  C0000238   1.000000000000e0
    X0000226  C0000570   1.000000000000e0
    X0000226  C0000571  -1.000000000000e0
    X0000227  C0000239  -1.000000000000e0
    X0000227  C0000240   1.000000000000e0
    X0000227  C0000571   1.000000000000e0
    X0000227  C0000572  -1.000000000000e0
    X0000228  C0000241  -1.000000000000e0
    X0000228  C0000242   1.000000000000e0
    X0000228  C0000572   1.000000000000e0
    X0000228  C0000573  -1.000000000000e0
    X0000229  C0000243  -1.000000000000e0
    X0000229  C0000244   1.000000000000e0
    X0000229  C0000573   1.000000000000e0
    X0000229  C0000574  -1.000000000000e0
    X0000230  C0000245  -1.000000000000e0
    X0000230  C0000246   1.000000000000e0
    X0000230  C0000574   1.000000000000e0
    X0000230  C0000575  -1.000000000000e0
    X0000231  C0000247  -1.000000000000e0
    X0000231  C0000248   1.000000000000e0
    X0000231  C0000575   1.000000000000e0
    X0000231  C0000576  -1.000000000000e0
    X0000232  C0000249  -1.000000000000e0
    X0000232  C0000250   1.000000000000e0
    X0000232  C0000576   1.000000000000e0
    X0000232  C0000577  -1.000000000000e0
    X0000233  C0000251  -1.000000000000e0
    X0000233  C0000252   1.000000000000e0
    X0000233  C0000577   1.000000000000e0
    X0000233  C0000578  -1.000000000000e0
    X0000234  C0000253  -1.000000000000e0
    X0000234  C0000254   1.000000000000e0
    X0000234  C0000578   1.000000000000e0
    X0000234  C0000579  -1.000000000000e0
    X0000235  C0000255  -1.000000000000e0
    X0000235  C0000256   1.000000000000e0
    X0000235  C0000579   1.000000000000e0
    X0000235  C0000580  -1.000000000000e0
    X0000236  C0000257  -1.000000000000e0
    X0000236  C0000258   1.000000000000e0
    X0000236  C0000580   1.000000000000e0
    X0000236  C0000581  -1.000000000000e0
    X0000237  C0000259  -1.000000000000e0
    X0000237  C0000260   1.000000000000e0
    X0000237  C0000581   1.000000000000e0
    X0000237  C0000582  -1.000000000000e0
    X0000238  C0000261  -1.000000000000e0
    X0000238  C0000262   1.000000000000e0
    X0000238  C0000582   1.000000000000e0
    X0000238  C0000583  -1.000000000000e0
    X0000239  C0000263  -1.000000000000e0
    X0000239  C0000264   1.000000000000e0
    X0000239  C0000583   1.000000000000e0
    X0000239  C0000584  -1.000000000000e0
    X0000240  C0000265  -1.000000000000e0
    X0000240  C0000266   1.000000000000e0
    X0000240  C0000584   1.000000000000e0
    X0000240  C0000585  -1.000000000000e0
    X0000241  C0000267  -1.000000000000e0
    X0000241  C0000268   1.000000000000e0
    X0000241  C0000585   1.000000000000e0
    X0000241  C0000586  -1.000000000000e0
    X0000242  C0000269  -1.000000000000e0
    X0000242  C0000270   1.000000000000e0
    X0000242  C0000586   1.000000000000e0
    X0000242  C0000587  -1.000000000000e0
    X0000243  C0000271  -1.000000000000e0
    X0000243  C0000272   1.000000000000e0
    X0000243  C0000587   1.000000000000e0
    X0000243  C0000588  -1.000000000000e0
    X0000244  C0000273  -1.000000000000e0
    X0000244  C0000274   1.000000000000e0
    X0000244  C0000588   1.000000000000e0
    X0000244  C0000589  -1.000000000000e0
    X0000245  C0000275  -1.000000000000e0
    X0000245  C0000276   1.000000000000e0
    X0000245  C0000589   1.000000000000e0
    X0000245  C0000590  -1.000000000000e0
    X0000246  C0000277  -1.000000000000e0
    X0000246  C0000278   1.000000000000e0
    X0000246  C0000590   1.000000000000e0
    X0000246  C0000591  -1.000000000000e0
    X0000247  C0000279  -1.000000000000e0
    X0000247  C0000280   1.000000000000e0
    X0000247  C0000591   1.000000000000e0
    X0000247  C0000592  -1.000000000000e0
    X0000248  C0000281  -1.000000000000e0
    X0000248  C0000282   1.000000000000e0
    X0000248  C0000592   1.000000000000e0
    X0000248  C0000593  -1.000000000000e0
    X0000249  C0000283  -1.000000000000e0
    X0000249  C0000284   1.000000000000e0
    X0000249  C0000593   1.000000000000e0
    X0000249  C0000594  -1.000000000000e0
    X0000250  C0000285  -1.000000000000e0
    X0000250  C0000286   1.000000000000e0
    X0000250  C0000594   1.000000000000e0
    X0000250  C0000595  -1.000000000000e0
    X0000251  C0000287  -1.000000000000e0
    X0000251  C0000288   1.000000000000e0
    X0000251  C0000595   1.000000000000e0
    X0000251  C0000596  -1.000000000000e0
    X0000252  C0000289  -1.000000000000e0
    X0000252  C0000290   1.000000000000e0
    X0000252  C0000596   1.000000000000e0
    X0000252  C0000597  -1.000000000000e0
    X0000253  C0000291  -1.000000000000e0
    X0000253  C0000292   1.000000000000e0
    X0000253  C0000597   1.000000000000e0
    X0000253  C0000598  -1.000000000000e0
    X0000254  C0000293  -1.000000000000e0
    X0000254  C0000294   1.000000000000e0
    X0000254  C0000598   1.000000000000e0
    X0000254  C0000599  -1.000000000000e0
    X0000255  C0000295  -1.000000000000e0
    X0000255  C0000296   1.000000000000e0
    X0000255  C0000599   1.000000000000e0
    X0000255  C0000600  -1.000000000000e0
    X0000256  C0000297  -1.000000000000e0
    X0000256  C0000298   1.000000000000e0
    X0000256  C0000600   1.000000000000e0
    X0000256  C0000601  -1.000000000000e0
    X0000257  C0000299  -1.000000000000e0
    X0000257  C0000300   1.000000000000e0
    X0000257  C0000601   1.000000000000e0
    X0000257  OBJ       -8.910000000000e2
    X0000258  C0000129   1.000000000000e0
    X0000258  OBJ        1.000000000000e6
    X0000259  C0000131   1.000000000000e0
    X0000259  OBJ        1.000000000000e6
    X0000260  C0000133   1.000000000000e0
    X0000260  OBJ        1.000000000000e6
    X0000261  C0000135   1.000000000000e0
    X0000261  OBJ        1.000000000000e6
    X0000262  C0000137   1.000000000000e0
    X0000262  OBJ        1.000000000000e6
    X0000263  C0000139   1.000000000000e0
    X0000263  OBJ        1.000000000000e6
    X0000264  C0000141   1.000000000000e0
    X0000264  OBJ        1.000000000000e6
    X0000265  C0000143   1.000000000000e0
    X0000265  OBJ        1.000000000000e6
    X0000266  C0000145   1.000000000000e0
    X0000266  OBJ        1.000000000000e6
    X0000267  C0000147   1.000000000000e0
    X0000267  OBJ        1.000000000000e6
    X0000268  C0000149   1.000000000000e0
    X0000268  OBJ        1.000000000000e6
    X0000269  C0000151   1.000000000000e0
    X0000269  OBJ        1.000000000000e6
    X0000270  C0000153   1.000000000000e0
    X0000270  OBJ        1.000000000000e6
    X0000271  C0000155   1.000000000000e0
    X0000271  OBJ        1.000000000000e6
    X0000272  C0000157   1.000000000000e0
    X0000272  OBJ        1.000000000000e6
    X0000273  C0000159   1.000000000000e0
    X0000273  OBJ        1.000000000000e6
    X0000274  C0000161   1.000000000000e0
    X0000274  OBJ        1.000000000000e6
    X0000275  C0000163   1.000000000000e0
    X0000275  OBJ        1.000000000000e6
    X0000276  C0000165   1.000000000000e0
    X0000276  OBJ        1.000000000000e6
    X0000277  C0000167   1.000000000000e0
    X0000277  OBJ        1.000000000000e6
    X0000278  C0000169   1.000000000000e0
    X0000278  OBJ        1.000000000000e6
    X0000279  C0000171   1.000000000000e0
    X0000279  OBJ        1.000000000000e6
    X0000280  C0000173   1.000000000000e0
    X0000280  OBJ        1.000000000000e6
    X0000281  C0000175   1.000000000000e0
    X0000281  OBJ        1.000000000000e6
    X0000282  C0000177   1.000000000000e0
    X0000282  OBJ        1.000000000000e6
    X0000283  C0000179   1.000000000000e0
    X0000283  OBJ        1.000000000000e6
    X0000284  C0000181   1.000000000000e0
    X0000284  OBJ        1.000000000000e6
    X0000285  C0000183   1.000000000000e0
    X0000285  OBJ        1.000000000000e6
    X0000286  C0000185   1.000000000000e0
    X0000286  OBJ        1.000000000000e6
    X0000287  C0000187   1.000000000000e0
    X0000287  OBJ        1.000000000000e6
    X0000288  C0000189   1.000000000000e0
    X0000288  OBJ        1.000000000000e6
    X0000289  C0000191   1.000000000000e0
    X0000289  OBJ        1.000000000000e6
    X0000290  C0000193   1.000000000000e0
    X0000290  OBJ        1.000000000000e6
    X0000291  C0000195   1.000000000000e0
    X0000291  OBJ        1.000000000000e6
    X0000292  C0000197   1.000000000000e0
    X0000292  OBJ        1.000000000000e6
    X0000293  C0000199   1.000000000000e0
    X0000293  OBJ        1.000000000000e6
    X0000294  C0000201   1.000000000000e0
    X0000294  OBJ        1.000000000000e6
    X0000295  C0000203   1.000000000000e0
    X0000295  OBJ        1.000000000000e6
    X0000296  C0000205   1.000000000000e0
    X0000296  OBJ        1.000000000000e6
    X0000297  C0000207   1.000000000000e0
    X0000297  OBJ        1.000000000000e6
    X0000298  C0000209   1.000000000000e0
    X0000298  OBJ        1.000000000000e6
    X0000299  C0000211   1.000000000000e0
    X0000299  OBJ        1.000000000000e6
    X0000300  C0000213   1.000000000000e0
    X0000300  OBJ        1.000000000000e6
    X0000301  C0000215   1.000000000000e0
    X0000301  OBJ        1.000000000000e6
    X0000302  C0000217   1.000000000000e0
    X0000302  OBJ        1.000000000000e6
    X0000303  C0000219   1.000000000000e0
    X0000303  OBJ        1.000000000000e6
    X0000304  C0000221   1.000000000000e0
    X0000304  OBJ        1.000000000000e6
    X0000305  C0000223   1.000000000000e0
    X0000305  OBJ        1.000000000000e6
    X0000306  C0000225   1.000000000000e0
    X0000306  OBJ        1.000000000000e6
    X0000307  C0000227   1.000000000000e0
    X0000307  OBJ        1.000000000000e6
    X0000308  C0000229   1.000000000000e0
    X0000308  OBJ        1.000000000000e6
    X0000309  C0000231   1.000000000000e0
    X0000309  OBJ        1.000000000000e6
    X0000310  C0000233   1.000000000000e0
    X0000310  OBJ        1.000000000000e6
    X0000311  C0000235   1.000000000000e0
    X0000311  OBJ        1.000000000000e6
    X0000312  C0000237   1.000000000000e0
    X0000312  OBJ        1.000000000000e6
    X0000313  C0000239   1.000000000000e0
    X0000313  OBJ        1.000000000000e6
    X0000314  C0000241   1.000000000000e0
    X0000314  OBJ        1.000000000000e6
    X0000315  C0000243   1.000000000000e0
    X0000315  OBJ        1.000000000000e6
    X0000316  C0000245   1.000000000000e0
    X0000316  OBJ        1.000000000000e6
    X0000317  C0000247   1.000000000000e0
    X0000317  OBJ        1.000000000000e6
    X0000318  C0000249   1.000000000000e0
    X0000318  OBJ        1.000000000000e6
    X0000319  C0000251   1.000000000000e0
    X0000319  OBJ        1.000000000000e6
    X0000320  C0000253   1.000000000000e0
    X0000320  OBJ        1.000000000000e6
    X0000321  C0000255   1.000000000000e0
    X0000321  OBJ        1.000000000000e6
    X0000322  C0000257   1.000000000000e0
    X0000322  OBJ        1.000000000000e6
    X0000323  C0000259   1.000000000000e0
    X0000323  OBJ        1.000000000000e6
    X0000324  C0000261   1.000000000000e0
    X0000324  OBJ        1.000000000000e6
    X0000325  C0000263   1.000000000000e0
    X0000325  OBJ        1.000000000000e6
    X0000326  C0000265   1.000000000000e0
    X0000326  OBJ        1.000000000000e6
    X0000327  C0000267   1.000000000000e0
    X0000327  OBJ        1.000000000000e6
    X0000328  C0000269   1.000000000000e0
    X0000328  OBJ        1.000000000000e6
    X0000329  C0000271   1.000000000000e0
    X0000329  OBJ        1.000000000000e6
    X0000330  C0000273   1.000000000000e0
    X0000330  OBJ        1.000000000000e6
    X0000331  C0000275   1.000000000000e0
    X0000331  OBJ        1.000000000000e6
    X0000332  C0000277   1.000000000000e0
    X0000332  OBJ        1.000000000000e6
    X0000333  C0000279   1.000000000000e0
    X0000333  OBJ        1.000000000000e6
    X0000334  C0000281   1.000000000000e0
    X0000334  OBJ        1.000000000000e6
    X0000335  C0000283   1.000000000000e0
    X0000335  OBJ        1.000000000000e6
    X0000336  C0000285   1.000000000000e0
    X0000336  OBJ        1.000000000000e6
    X0000337  C0000287   1.000000000000e0
    X0000337  OBJ        1.000000000000e6
    X0000338  C0000289   1.000000000000e0
    X0000338  OBJ        1.000000000000e6
    X0000339  C0000291   1.000000000000e0
    X0000339  OBJ        1.000000000000e6
    X0000340  C0000293   1.000000000000e0
    X0000340  OBJ        1.000000000000e6
    X0000341  C0000295   1.000000000000e0
    X0000341  OBJ        1.000000000000e6
    X0000342  C0000297   1.000000000000e0
    X0000342  OBJ        1.000000000000e6
    X0000343  C0000299   1.000000000000e0
    X0000343  OBJ        1.000000000000e6
    X0000344  C0000130   1.000000000000e0
    X0000344  OBJ        1.000000000000e6
    X0000345  C0000132   1.000000000000e0
    X0000345  OBJ        1.000000000000e6
    X0000346  C0000134   1.000000000000e0
    X0000346  OBJ        1.000000000000e6
    X0000347  C0000136   1.000000000000e0
    X0000347  OBJ        1.000000000000e6
    X0000348  C0000138   1.000000000000e0
    X0000348  OBJ        1.000000000000e6
    X0000349  C0000140   1.000000000000e0
    X0000349  OBJ        1.000000000000e6
    X0000350  C0000142   1.000000000000e0
    X0000350  OBJ        1.000000000000e6
    X0000351  C0000144   1.000000000000e0
    X0000351  OBJ        1.000000000000e6
    X0000352  C0000146   1.000000000000e0
    X0000352  OBJ        1.000000000000e6
    X0000353  C0000148   1.000000000000e0
    X0000353  OBJ        1.000000000000e6
    X0000354  C0000150   1.000000000000e0
    X0000354  OBJ        1.000000000000e6
    X0000355  C0000152   1.000000000000e0
    X0000355  OBJ        1.000000000000e6
    X0000356  C0000154   1.000000000000e0
    X0000356  OBJ        1.000000000000e6
    X0000357  C0000156   1.000000000000e0
    X0000357  OBJ        1.000000000000e6
    X0000358  C0000158   1.000000000000e0
    X0000358  OBJ        1.000000000000e6
    X0000359  C0000160   1.000000000000e0
    X0000359  OBJ        1.000000000000e6
    X0000360  C0000162   1.000000000000e0
    X0000360  OBJ        1.000000000000e6
    X0000361  C0000164   1.000000000000e0
    X0000361  OBJ        1.000000000000e6
    X0000362  C0000166   1.000000000000e0
    X0000362  OBJ        1.000000000000e6
    X0000363  C0000168   1.000000000000e0
    X0000363  OBJ        1.000000000000e6
    X0000364  C0000170   1.000000000000e0
    X0000364  OBJ        1.000000000000e6
    X0000365  C0000172   1.000000000000e0
    X0000365  OBJ        1.000000000000e6
    X0000366  C0000174   1.000000000000e0
    X0000366  OBJ        1.000000000000e6
    X0000367  C0000176   1.000000000000e0
    X0000367  OBJ        1.000000000000e6
    X0000368  C0000178   1.000000000000e0
    X0000368  OBJ        1.000000000000e6
    X0000369  C0000180   1.000000000000e0
    X0000369  OBJ        1.000000000000e6
    X0000370  C0000182   1.000000000000e0
    X0000370  OBJ        1.000000000000e6
    X0000371  C0000184   1.000000000000e0
    X0000371  OBJ        1.000000000000e6
    X0000372  C0000186   1.000000000000e0
    X0000372  OBJ        1.000000000000e6
    X0000373  C0000188   1.000000000000e0
    X0000373  OBJ        1.000000000000e6
    X0000374  C0000190   1.000000000000e0
    X0000374  OBJ        1.000000000000e6
    X0000375  C0000192   1.000000000000e0
    X0000375  OBJ        1.000000000000e6
    X0000376  C0000194   1.000000000000e0
    X0000376  OBJ        1.000000000000e6
    X0000377  C0000196   1.000000000000e0
    X0000377  OBJ        1.000000000000e6
    X0000378  C0000198   1.000000000000e0
    X0000378  OBJ        1.000000000000e6
    X0000379  C0000200   1.000000000000e0
    X0000379  OBJ        1.000000000000e6
    X0000380  C0000202   1.000000000000e0
    X0000380  OBJ        1.000000000000e6
    X0000381  C0000204   1.000000000000e0
    X0000381  OBJ        1.000000000000e6
    X0000382  C0000206   1.000000000000e0
    X0000382  OBJ        1.000000000000e6
    X0000383  C0000208   1.000000000000e0
    X0000383  OBJ        1.000000000000e6
    X0000384  C0000210   1.000000000000e0
    X0000384  OBJ        1.000000000000e6
    X0000385  C0000212   1.000000000000e0
    X0000385  OBJ        1.000000000000e6
    X0000386  C0000214   1.000000000000e0
    X0000386  OBJ        1.000000000000e6
    X0000387  C0000216   1.000000000000e0
    X0000387  OBJ        1.000000000000e6
    X0000388  C0000218   1.000000000000e0
    X0000388  OBJ        1.000000000000e6
    X0000389  C0000220   1.000000000000e0
    X0000389  OBJ        1.000000000000e6
    X0000390  C0000222   1.000000000000e0
    X0000390  OBJ        1.000000000000e6
    X0000391  C0000224   1.000000000000e0
    X0000391  OBJ        1.000000000000e6
    X0000392  C0000226   1.000000000000e0
    X0000392  OBJ        1.000000000000e6
    X0000393  C0000228   1.000000000000e0
    X0000393  OBJ        1.000000000000e6
    X0000394  C0000230   1.000000000000e0
    X0000394  OBJ        1.000000000000e6
    X0000395  C0000232   1.000000000000e0
    X0000395  OBJ        1.000000000000e6
    X0000396  C0000234   1.000000000000e0
    X0000396  OBJ        1.000000000000e6
    X0000397  C0000236   1.000000000000e0
    X0000397  OBJ        1.000000000000e6
    X0000398  C0000238   1.000000000000e0
    X0000398  OBJ        1.000000000000e6
    X0000399  C0000240   1.000000000000e0
    X0000399  OBJ        1.000000000000e6
    X0000400  C0000242   1.000000000000e0
    X0000400  OBJ        1.000000000000e6
    X0000401  C0000244   1.000000000000e0
    X0000401  OBJ        1.000000000000e6
    X0000402  C0000246   1.000000000000e0
    X0000402  OBJ        1.000000000000e6
    X0000403  C0000248   1.000000000000e0
    X0000403  OBJ        1.000000000000e6
    X0000404  C0000250   1.000000000000e0
    X0000404  OBJ        1.000000000000e6
    X0000405  C0000252   1.000000000000e0
    X0000405  OBJ        1.000000000000e6
    X0000406  C0000254   1.000000000000e0
    X0000406  OBJ        1.000000000000e6
    X0000407  C0000256   1.000000000000e0
    X0000407  OBJ        1.000000000000e6
    X0000408  C0000258   1.000000000000e0
    X0000408  OBJ        1.000000000000e6
    X0000409  C0000260   1.000000000000e0
    X0000409  OBJ        1.000000000000e6
    X0000410  C0000262   1.000000000000e0
    X0000410  OBJ        1.000000000000e6
    X0000411  C0000264   1.000000000000e0
    X0000411  OBJ        1.000000000000e6
    X0000412  C0000266   1.000000000000e0
    X0000412  OBJ        1.000000000000e6
    X0000413  C0000268   1.000000000000e0
    X0000413  OBJ        1.000000000000e6
    X0000414  C0000270   1.000000000000e0
    X0000414  OBJ        1.000000000000e6
    X0000415  C0000272   1.000000000000e0
    X0000415  OBJ        1.000000000000e6
    X0000416  C0000274   1.000000000000e0
    X0000416  OBJ        1.000000000000e6
    X0000417  C0000276   1.000000000000e0
    X0000417  OBJ        1.000000000000e6
    X0000418  C0000278   1.000000000000e0
    X0000418  OBJ        1.000000000000e6
    X0000419  C0000280   1.000000000000e0
    X0000419  OBJ        1.000000000000e6
    X0000420  C0000282   1.000000000000e0
    X0000420  OBJ        1.000000000000e6
    X0000421  C0000284   1.000000000000e0
    X0000421  OBJ        1.000000000000e6
    X0000422  C0000286   1.000000000000e0
    X0000422  OBJ        1.000000000000e6
    X0000423  C0000288   1.000000000000e0
    X0000423  OBJ        1.000000000000e6
    X0000424  C0000290   1.000000000000e0
    X0000424  OBJ        1.000000000000e6
    X0000425  C0000292   1.000000000000e0
    X0000425  OBJ        1.000000000000e6
    X0000426  C0000294   1.000000000000e0
    X0000426  OBJ        1.000000000000e6
    X0000427  C0000296   1.000000000000e0
    X0000427  OBJ        1.000000000000e6
    X0000428  C0000298   1.000000000000e0
    X0000428  OBJ        1.000000000000e6
    X0000429  C0000300   1.000000000000e0
    X0000429  OBJ        1.000000000000e6
    X0000430  C0000000   1.000000000000e0
    X0000430  C0000044   1.000000000000e0
    X0000430  OBJ        1.000430000000e3
    X0000431  C0000001   1.000000000000e0
    X0000431  C0000046   1.000000000000e0
    X0000431  OBJ        1.000420000000e3
    X0000432  C0000002   1.000000000000e0
    X0000432  C0000048   1.000000000000e0
    X0000432  OBJ        1.000410000000e3
    X0000433  C0000003   1.000000000000e0
    X0000433  C0000050   1.000000000000e0
    X0000433  OBJ        1.000400000000e3
    X0000434  C0000004   1.000000000000e0
    X0000434  C0000052   1.000000000000e0
    X0000434  OBJ        1.000390000000e3
    X0000435  C0000005   1.000000000000e0
    X0000435  C0000054   1.000000000000e0
    X0000435  OBJ        1.000380000000e3
    X0000436  C0000006   1.000000000000e0
    X0000436  C0000056   1.000000000000e0
    X0000436  OBJ        1.000370000000e3
    X0000437  C0000007   1.000000000000e0
    X0000437  C0000058   1.000000000000e0
    X0000437  OBJ        1.000360000000e3
    X0000438  C0000008   1.000000000000e0
    X0000438  C0000060   1.000000000000e0
    X0000438  OBJ        1.000350000000e3
    X0000439  C0000009   1.000000000000e0
    X0000439  C0000062   1.000000000000e0
    X0000439  OBJ        1.000340000000e3
    X0000440  C0000010   1.000000000000e0
    X0000440  C0000064   1.000000000000e0
    X0000440  OBJ        1.000330000000e3
    X0000441  C0000011   1.000000000000e0
    X0000441  C0000066   1.000000000000e0
    X0000441  OBJ        1.000320000000e3
    X0000442  C0000012   1.000000000000e0
    X0000442  C0000068   1.000000000000e0
    X0000442  OBJ        1.000310000000e3
    X0000443  C0000013   1.000000000000e0
    X0000443  C0000070   1.000000000000e0
    X0000443  OBJ        1.000300000000e3
    X0000444  C0000014   1.000000000000e0
    X0000444  C0000072   1.000000000000e0
    X0000444  OBJ        1.000290000000e3
    X0000445  C0000015   1.000000000000e0
    X0000445  C0000074   1.000000000000e0
    X0000445  OBJ        1.000280000000e3
    X0000446  C0000016   1.000000000000e0
    X0000446  C0000076   1.000000000000e0
    X0000446  OBJ        1.000270000000e3
    X0000447  C0000017   1.000000000000e0
    X0000447  C0000078   1.000000000000e0
    X0000447  OBJ        1.000260000000e3
    X0000448  C0000018   1.000000000000e0
    X0000448  C0000080   1.000000000000e0
    X0000448  OBJ        1.000250000000e3
    X0000449  C0000019   1.000000000000e0
    X0000449  C0000082   1.000000000000e0
    X0000449  OBJ        1.000240000000e3
    X0000450  C0000020   1.000000000000e0
    X0000450  C0000084   1.000000000000e0
    X0000450  OBJ        1.000230000000e3
    X0000451  C0000021   1.000000000000e0
    X0000451  C0000086   1.000000000000e0
    X0000451  OBJ        1.000220000000e3
    X0000452  C0000022   1.000000000000e0
    X0000452  C0000088   1.000000000000e0
    X0000452  OBJ        1.000210000000e3
    X0000453  C0000023   1.000000000000e0
    X0000453  C0000090   1.000000000000e0
    X0000453  OBJ        1.000200000000e3
    X0000454  C0000024   1.000000000000e0
    X0000454  C0000092   1.000000000000e0
    X0000454  OBJ        1.000190000000e3
    X0000455  C0000025   1.000000000000e0
    X0000455  C0000094   1.000000000000e0
    X0000455  OBJ        1.000180000000e3
    X0000456  C0000026   1.000000000000e0
    X0000456  C0000096   1.000000000000e0
    X0000456  OBJ        1.000170000000e3
    X0000457  C0000027   1.000000000000e0
    X0000457  C0000098   1.000000000000e0
    X0000457  OBJ        1.000160000000e3
    X0000458  C0000028   1.000000000000e0
    X0000458  C0000100   1.000000000000e0
    X0000458  OBJ        1.000150000000e3
    X0000459  C0000029   1.000000000000e0
    X0000459  C0000102   1.000000000000e0
    X0000459  OBJ        1.000140000000e3
    X0000460  C0000030   1.000000000000e0
    X0000460  C0000104   1.000000000000e0
    X0000460  OBJ        1.000130000000e3
    X0000461  C0000031   1.000000000000e0
    X0000461  C0000106   1.000000000000e0
    X0000461  OBJ        1.000120000000e3
    X0000462  C0000032   1.000000000000e0
    X0000462  C0000108   1.000000000000e0
    X0000462  OBJ        1.000110000000e3
    X0000463  C0000033   1.000000000000e0
    X0000463  C0000110   1.000000000000e0
    X0000463  OBJ        1.000100000000e3
    X0000464  C0000034   1.000000000000e0
    X0000464  C0000112   1.000000000000e0
    X0000464  OBJ        1.000090000000e3
    X0000465  C0000035   1.000000000000e0
    X0000465  C0000114   1.000000000000e0
    X0000465  OBJ        1.000080000000e3
    X0000466  C0000036   1.000000000000e0
    X0000466  C0000116   1.000000000000e0
    X0000466  OBJ        1.000070000000e3
    X0000467  C0000037   1.000000000000e0
    X0000467  C0000118   1.000000000000e0
    X0000467  OBJ        1.000060000000e3
    X0000468  C0000038   1.000000000000e0
    X0000468  C0000120   1.000000000000e0
    X0000468  OBJ        1.000050000000e3
    X0000469  C0000039   1.000000000000e0
    X0000469  C0000122   1.000000000000e0
    X0000469  OBJ        1.000040000000e3
    X0000470  C0000040   1.000000000000e0
    X0000470  C0000124   1.000000000000e0
    X0000470  OBJ        1.000030000000e3
    X0000471  C0000041   1.000000000000e0
    X0000471  C0000126   1.000000000000e0
    X0000471  OBJ        1.000020000000e3
    X0000472  C0000042   1.000000000000e0
    X0000472  C0000128   1.000000000000e0
    X0000472  OBJ        1.000010000000e3
    X0000473  C0000000  -1.000000000000e0
    X0000473  C0000043   1.000000000000e0
    X0000473  OBJ       -3.673971947093e2
    X0000474  C0000001  -1.000000000000e0
    X0000474  C0000045   1.000000000000e0
    X0000474  OBJ       -3.674371947093e2
    X0000475  C0000002  -1.000000000000e0
    X0000475  C0000047   1.000000000000e0
    X0000475  OBJ       -3.674771947093e2
    X0000476  C0000003  -1.000000000000e0
    X0000476  C0000049   1.000000000000e0
    X0000476  OBJ       -3.675171947093e2
    X0000477  C0000004  -1.000000000000e0
    X0000477  C0000051   1.000000000000e0
    X0000477  OBJ       -3.675571947093e2
    X0000478  C0000005  -1.000000000000e0
    X0000478  C0000053   1.000000000000e0
    X0000478  OBJ       -3.675971947093e2
    X0000479  C0000006  -1.000000000000e0
    X0000479  C0000055   1.000000000000e0
    X0000479  OBJ       -3.676371947093e2
    X0000480  C0000007  -1.000000000000e0
    X0000480  C0000057   1.000000000000e0
    X0000480  OBJ       -3.676771947093e2
    X0000481  C0000008  -1.000000000000e0
    X0000481  C0000059   1.000000000000e0
    X0000481  OBJ       -3.677171947093e2
    X0000482  C0000009  -1.000000000000e0
    X0000482  C0000061   1.000000000000e0
    X0000482  OBJ       -3.677571947093e2
    X0000483  C0000010  -1.000000000000e0
    X0000483  C0000063   1.000000000000e0
    X0000483  OBJ       -3.677971947093e2
    X0000484  C0000011  -1.000000000000e0
    X0000484  C0000065   1.000000000000e0
    X0000484  OBJ       -3.678371947093e2
    X0000485  C0000012  -1.000000000000e0
    X0000485  C0000067   1.000000000000e0
    X0000485  OBJ       -3.678771947093e2
    X0000486  C0000013  -1.000000000000e0
    X0000486  C0000069   1.000000000000e0
    X0000486  OBJ       -3.679171947093e2
    X0000487  C0000014  -1.000000000000e0
    X0000487  C0000071   1.000000000000e0
    X0000487  OBJ       -3.679571947093e2
    X0000488  C0000015  -1.000000000000e0
    X0000488  C0000073   1.000000000000e0
    X0000488  OBJ       -3.679971947093e2
    X0000489  C0000016  -1.000000000000e0
    X0000489  C0000075   1.000000000000e0
    X0000489  OBJ       -3.680371947093e2
    X0000490  C0000017  -1.000000000000e0
    X0000490  C0000077   1.000000000000e0
    X0000490  OBJ       -3.680771947093e2
    X0000491  C0000018  -1.000000000000e0
    X0000491  C0000079   1.000000000000e0
    X0000491  OBJ       -3.681171947093e2
    X0000492  C0000019  -1.000000000000e0
    X0000492  C0000081   1.000000000000e0
    X0000492  OBJ       -3.681571947093e2
    X0000493  C0000020  -1.000000000000e0
    X0000493  C0000083   1.000000000000e0
    X0000493  OBJ       -3.681971947093e2
    X0000494  C0000021  -1.000000000000e0
    X0000494  C0000085   1.000000000000e0
    X0000494  OBJ       -3.682371947093e2
    X0000495  C0000022  -1.000000000000e0
    X0000495  C0000087   1.000000000000e0
    X0000495  OBJ       -3.682771947093e2
    X0000496  C0000023  -1.000000000000e0
    X0000496  C0000089   1.000000000000e0
    X0000496  OBJ       -3.683171947093e2
    X0000497  C0000024  -1.000000000000e0
    X0000497  C0000091   1.000000000000e0
    X0000497  OBJ       -3.683571947093e2
    X0000498  C0000025  -1.000000000000e0
    X0000498  C0000093   1.000000000000e0
    X0000498  OBJ       -3.683971947093e2
    X0000499  C0000026  -1.000000000000e0
    X0000499  C0000095   1.000000000000e0
    X0000499  OBJ       -3.684371947093e2
    X0000500  C0000027  -1.000000000000e0
    X0000500  C0000097   1.000000000000e0
    X0000500  OBJ       -3.684771947093e2
    X0000501  C0000028  -1.000000000000e0
    X0000501  C0000099   1.000000000000e0
    X0000501  OBJ       -3.685171947093e2
    X0000502  C0000029  -1.000000000000e0
    X0000502  C0000101   1.000000000000e0
    X0000502  OBJ       -3.685571947093e2
    X0000503  C0000030  -1.000000000000e0
    X0000503  C0000103   1.000000000000e0
    X0000503  OBJ       -3.685971947093e2
    X0000504  C0000031  -1.000000000000e0
    X0000504  C0000105   1.000000000000e0
    X0000504  OBJ       -3.686371947093e2
    X0000505  C0000032  -1.000000000000e0
    X0000505  C0000107   1.000000000000e0
    X0000505  OBJ       -3.686771947093e2
    X0000506  C0000033  -1.000000000000e0
    X0000506  C0000109   1.000000000000e0
    X0000506  OBJ       -3.687171947093e2
    X0000507  C0000034  -1.000000000000e0
    X0000507  C0000111   1.000000000000e0
    X0000507  OBJ       -3.687571947093e2
    X0000508  C0000035  -1.000000000000e0
    X0000508  C0000113   1.000000000000e0
    X0000508  OBJ       -3.687971947093e2
    X0000509  C0000036  -1.000000000000e0
    X0000509  C0000115   1.000000000000e0
    X0000509  OBJ       -3.688371947093e2
    X0000510  C0000037  -1.000000000000e0
    X0000510  C0000117   1.000000000000e0
    X0000510  OBJ       -3.688771947093e2
    X0000511  C0000038  -1.000000000000e0
    X0000511  C0000119   1.000000000000e0
    X0000511  OBJ       -3.689171947093e2
    X0000512  C0000039  -1.000000000000e0
    X0000512  C0000121   1.000000000000e0
    X0000512  OBJ       -3.689571947093e2
    X0000513  C0000040  -1.000000000000e0
    X0000513  C0000123   1.000000000000e0
    X0000513  OBJ       -3.689971947093e2
    X0000514  C0000041  -1.000000000000e0
    X0000514  C0000125   1.000000000000e0
    X0000514  OBJ       -3.690371947093e2
    X0000515  C0000042  -1.000000000000e0
    X0000515  C0000127   1.000000000000e0
    X0000515  OBJ       -3.690771947093e2
    MARK      'MARKER'                 'INTORG'
    X0000516  C0000043  -2.565529500000e2
    X0000516  C0000044   2.489135593333e3
    X0000516  C0000602  -2.596666666667e2
    X0000516  C0000645   1.731111111111e2
    MARK      'MARKER'                 'INTEND'
    MARK      'MARKER'                 'INTORG'
    X0000517  C0000045  -1.110100000000e3
    X0000517  C0000046   1.142682510000e4
    X0000517  C0000603  -1.200000000000e3
    X0000517  C0000646   8.000000000000e2
    MARK      'MARKER'                 'INTEND'
    MARK      'MARKER'                 'INTORG'
    X0000518  C0000047  -8.627500000000e2
    X0000518  C0000048   1.147216740000e4
    X0000518  C0000604  -1.200000000000e3
    X0000518  C0000647   8.000000000000e2
    MARK      'MARKER'                 'INTEND'
    MARK      'MARKER'                 'INTORG'
    X0000519  C0000049  -4.687750000000e2
    X0000519  C0000050   1.152836887000e4
    X0000519  C0000605  -1.200000000000e3
    X0000519  C0000648   8.000000000000e2
    MARK      'MARKER'                 'INTEND'
    MARK      'MARKER'                 'INTORG'
    X0000520  C0000051  -1.448750000000e2
    X0000520  C0000052   1.147358580000e4
    X0000520  C0000606  -1.200000000000e3
    X0000520  C0000649   8.000000000000e2
    MARK      'MARKER'                 'INTEND'
    MARK      'MARKER'                 'INTORG'
    X0000521  C0000053  -1.917500000000e1
    X0000521  C0000054   1.146735840000e4
    X0000521  C0000607  -1.200000000000e3
    X0000521  C0000650   8.000000000000e2
    MARK      'MARKER'                 'INTEND'
    MARK      'MARKER'                 'INTORG'
    X0000522  C0000056   1.133757880000e4
    X0000522  C0000608  -1.200000000000e3
    X0000522  C0000651   8.000000000000e2
    MARK      'MARKER'                 'INTEND'
    MARK      'MARKER'                 'INTORG'
    X0000523  C0000058   1.126720483000e4
    X0000523  C0000609  -1.200000000000e3
    X0000523  C0000652   8.000000000000e2
    MARK      'MARKER'                 'INTEND'
    MARK      'MARKER'                 'INTORG'
    X0000524  C0000060   1.124227895000e4
    X0000524  C0000610  -1.200000000000e3
    X0000524  C0000653   8.000000000000e2
    MARK      'MARKER'                 'INTEND'
    MARK      'MARKER'                 'INTORG'
    X0000525  C0000062   1.123722377000e4
    X0000525  C0000611  -1.200000000000e3
    X0000525  C0000654   8.000000000000e2
    MARK      'MARKER'                 'INTEND'
    MARK      'MARKER'                 'INTORG'
    X0000526  C0000064   1.123960960000e4
    X0000526  C0000612  -1.200000000000e3
    X0000526  C0000655   8.000000000000e2
    MARK      'MARKER'                 'INTEND'
    MARK      'MARKER'                 'INTORG'
    X0000527  C0000066   1.123637796000e4
    X0000527  C0000613  -1.200000000000e3
    X0000527  C0000656   8.000000000000e2
    MARK      'MARKER'                 'INTEND'
    MARK      'MARKER'                 'INTORG'
    X0000528  C0000068   1.123369164000e4
    X0000528  C0000614  -1.200000000000e3
    X0000528  C0000657   8.000000000000e2
    MARK      'MARKER'                 'INTEND'
    MARK      'MARKER'                 'INTORG'
    X0000529  C0000070   1.124064168000e4
    X0000529  C0000615  -1.200000000000e3
    X0000529  C0000658   8.000000000000e2
    MARK      'MARKER'                 'INTEND'
    MARK      'MARKER'                 'INTORG'
    X0000530  C0000072   1.125688495000e4
    X0000530  C0000616  -1.200000000000e3
    X0000530  C0000659   8.000000000000e2
    MARK      'MARKER'                 'INTEND'
    MARK      'MARKER'                 'INTORG'
    X0000531  C0000074   1.136637585000e4
    X0000531  C0000617  -1.200000000000e3
    X0000531  C0000660   8.000000000000e2
    MARK      'MARKER'                 'INTEND'
    MARK      'MARKER'                 'INTORG'
    X0000532  C0000075  -3.200000000000e0
    X0000532  C0000076   1.139789276000e4
    X0000532  C0000618  -1.200000000000e3
    X0000532  C0000661   8.000000000000e2
    MARK      'MARKER'                 'INTEND'
    MARK      'MARKER'                 'INTORG'
    X0000533  C0000077  -7.572500000000e1
    X0000533  C0000078   1.147569170000e4
    X0000533  C0000619  -1.200000000000e3
    X0000533  C0000662   8.000000000000e2
    MARK      'MARKER'                 'INTEND'
    MARK      'MARKER'                 'INTORG'
    X0000534  C0000079  -4.053500000000e2
    X0000534  C0000080   1.154625586000e4
    X0000534  C0000620  -1.200000000000e3
    X0000534  C0000663   8.000000000000e2
    MARK      'MARKER'                 'INTEND'
    MARK      'MARKER'                 'INTORG'
    X0000535  C0000081  -1.124425000000e3
    X0000535  C0000082   1.166793090000e4
    X0000535  C0000621  -1.200000000000e3
    X0000535  C0000664   8.000000000000e2
    MARK      'MARKER'                 'INTEND'
    MARK      'MARKER'                 'INTORG'
    X0000536  C0000083  -2.134725000000e3
    X0000536  C0000084   1.155556476000e4
    X0000536  C0000622  -1.200000000000e3
    X0000536  C0000665   8.000000000000e2
    MARK      'MARKER'                 'INTEND'
    MARK      'MARKER'                 'INTORG'
    X0000537  C0000085  -2.775475000000e3
    X0000537  C0000086   1.155387994000e4
    X0000537  C0000623  -1.200000000000e3
    X0000537  C0000666   8.000000000000e2
    MARK      'MARKER'                 'INTEND'
    MARK      'MARKER'                 'INTORG'
    X0000538  C0000087  -2.861375000000e3
    X0000538  C0000088   1.154567273000e4
    X0000538  C0000624  -1.200000000000e3
    X0000538  C0000667   8.000000000000e2
    MARK      'MARKER'                 'INTEND'
    MARK      'MARKER'                 'INTORG'
    X0000539  C0000089  -2.972525000000e3
    X0000539  C0000090   1.154647170000e4
    X0000539  C0000625  -1.200000000000e3
    X0000539  C0000668   8.000000000000e2
    MARK      'MARKER'                 'INTEND'
    MARK      'MARKER'                 'INTORG'
    X0000540  C0000091  -2.950850000000e3
    X0000540  C0000092   1.150247200000e4
    X0000540  C0000626  -1.200000000000e3
    X0000540  C0000669   8.000000000000e2
    MARK      'MARKER'                 'INTEND'
    MARK      'MARKER'                 'INTORG'
    X0000541  C0000093  -2.579800000000e3
    X0000541  C0000094   1.142682510000e4
    X0000541  C0000627  -1.200000000000e3
    X0000541  C0000670   8.000000000000e2
    MARK      'MARKER'                 'INTEND'
    MARK      'MARKER'                 'INTORG'
    X0000542  C0000095  -1.969025000000e3
    X0000542  C0000096   1.147216740000e4
    X0000542  C0000628  -1.200000000000e3
    X0000542  C0000671   8.000000000000e2
    MARK      'MARKER'                 'INTEND'
    MARK      'MARKER'                 'INTORG'
    X0000543  C0000097  -1.051400000000e3
    X0000543  C0000098   1.152836887000e4
    X0000543  C0000629  -1.200000000000e3
    X0000543  C0000672   8.000000000000e2
    MARK      'MARKER'                 'INTEND'
    MARK      'MARKER'                 'INTORG'
    X0000544  C0000099  -2.836500000000e2
    X0000544  C0000100   1.147358580000e4
    X0000544  C0000630  -1.200000000000e3
    X0000544  C0000673   8.000000000000e2
    MARK      'MARKER'                 'INTEND'
    MARK      'MARKER'                 'INTORG'
    X0000545  C0000101  -2.882500000000e1
    X0000545  C0000102   1.146735840000e4
    X0000545  C0000631  -1.200000000000e3
    X0000545  C0000674   8.000000000000e2
    MARK      'MARKER'                 'INTEND'
    MARK      'MARKER'                 'INTORG'
    X0000546  C0000104   1.133757880000e4
    X0000546  C0000632  -1.200000000000e3
    X0000546  C0000675   8.000000000000e2
    MARK      'MARKER'                 'INTEND'
    MARK      'MARKER'                 'INTORG'
    X0000547  C0000106   1.126720483000e4
    X0000547  C0000633  -1.200000000000e3
    X0000547  C0000676   8.000000000000e2
    MARK      'MARKER'                 'INTEND'
    MARK      'MARKER'                 'INTORG'
    X0000548  C0000108   1.124227895000e4
    X0000548  C0000634  -1.200000000000e3
    X0000548  C0000677   8.000000000000e2
    MARK      'MARKER'                 'INTEND'
    MARK      'MARKER'                 'INTORG'
    X0000549  C0000110   1.123722377000e4
    X0000549  C0000635  -1.200000000000e3
    X0000549  C0000678   8.000000000000e2
    MARK      'MARKER'                 'INTEND'
    MARK      'MARKER'                 'INTORG'
    X0000550  C0000112   1.123960960000e4
    X0000550  C0000636  -1.200000000000e3
    X0000550  C0000679   8.000000000000e2
    MARK      'MARKER'                 'INTEND'
    MARK      'MARKER'                 'INTORG'
    X0000551  C0000114   1.123637796000e4
    X0000551  C0000637  -1.200000000000e3
    X0000551  C0000680   8.000000000000e2
    MARK      'MARKER'                 'INTEND'
    MARK      'MARKER'                 'INTORG'
    X0000552  C0000116   1.123369164000e4
    X0000552  C0000638  -1.200000000000e3
    X0000552  C0000681   8.000000000000e2
    MARK      'MARKER'                 'INTEND'
    MARK      'MARKER'                 'INTORG'
    X0000553  C0000118   1.124064168000e4
    X0000553  C0000639  -1.200000000000e3
    X0000553  C0000682   8.000000000000e2
    MARK      'MARKER'                 'INTEND'
    MARK      'MARKER'                 'INTORG'
    X0000554  C0000120   1.125688495000e4
    X0000554  C0000640  -1.200000000000e3
    X0000554  C0000683   8.000000000000e2
    MARK      'MARKER'                 'INTEND'
    MARK      'MARKER'                 'INTORG'
    X0000555  C0000122   1.136637585000e4
    X0000555  C0000641  -1.200000000000e3
    X0000555  C0000684   8.000000000000e2
    MARK      'MARKER'                 'INTEND'
    MARK      'MARKER'                 'INTORG'
    X0000556  C0000123  -8.475000000000e0
    X0000556  C0000124   1.139789276000e4
    X0000556  C0000642  -1.200000000000e3
    X0000556  C0000685   8.000000000000e2
    MARK      'MARKER'                 'INTEND'
    MARK      'MARKER'                 'INTORG'
    X0000557  C0000125  -2.081250000000e2
    X0000557  C0000126   1.147569170000e4
    X0000557  C0000643  -1.200000000000e3
    X0000557  C0000686   8.000000000000e2
    MARK      'MARKER'                 'INTEND'
    MARK      'MARKER'                 'INTORG'
    X0000558  C0000128   1.154625586000e4
    X0000558  C0000644  -1.200000000000e3
    X0000558  C0000687   8.000000000000e2
    MARK      'MARKER'                 'INTEND'
    MARK      'MARKER'                 'INTORG'
    X0000559  C0000344  -2.986166666667e2
    X0000559  C0000345  -2.388933333333e3
    MARK      'MARKER'                 'INTEND'
    MARK      'MARKER'                 'INTORG'
    X0000560  C0000346  -1.380000000000e3
    X0000560  C0000347  -1.104000000000e4
    MARK      'MARKER'                 'INTEND'
    MARK      'MARKER'                 'INTORG'
    X0000561  C0000348  -1.380000000000e3
    X0000561  C0000349  -1.104000000000e4
    MARK      'MARKER'                 'INTEND'
    MARK      'MARKER'                 'INTORG'
    X0000562  C0000350  -1.380000000000e3
    X0000562  C0000351  -1.104000000000e4
    MARK      'MARKER'                 'INTEND'
    MARK      'MARKER'                 'INTORG'
    X0000563  C0000352  -1.380000000000e3
    X0000563  C0000353  -1.104000000000e4
    MARK      'MARKER'                 'INTEND'
    MARK      'MARKER'                 'INTORG'
    X0000564  C0000354  -1.380000000000e3
    X0000564  C0000355  -1.104000000000e4
    MARK      'MARKER'                 'INTEND'
    MARK      'MARKER'                 'INTORG'
    X0000565  C0000356  -1.380000000000e3
    X0000565  C0000357  -1.104000000000e4
    MARK      'MARKER'                 'INTEND'
    MARK      'MARKER'                 'INTORG'
    X0000566  C0000358  -1.380000000000e3
    X0000566  C0000359  -1.104000000000e4
    MARK      'MARKER'                 'INTEND'
    MARK      'MARKER'                 'INTORG'
    X0000567  C0000360  -1.380000000000e3
    X0000567  C0000361  -1.104000000000e4
    MARK      'MARKER'                 'INTEND'
    MARK      'MARKER'                 'INTORG'
    X0000568  C0000362  -1.380000000000e3
    X0000568  C0000363  -1.104000000000e4
    MARK      'MARKER'                 'INTEND'
    MARK      'MARKER'                 'INTORG'
    X0000569  C0000364  -1.380000000000e3
    X0000569  C0000365  -1.104000000000e4
    MARK      'MARKER'                 'INTEND'
    MARK      'MARKER'                 'INTORG'
    X0000570  C0000366  -1.380000000000e3
    X0000570  C0000367  -1.104000000000e4
    MARK      'MARKER'                 'INTEND'
    MARK      'MARKER'                 'INTORG'
    X0000571  C0000368  -1.380000000000e3
    X0000571  C0000369  -1.104000000000e4
    MARK      'MARKER'                 'INTEND'
    MARK      'MARKER'                 'INTORG'
    X0000572  C0000370  -1.380000000000e3
    X0000572  C0000371  -1.104000000000e4
    MARK      'MARKER'                 'INTEND'
    MARK      'MARKER'                 'INTORG'
    X0000573  C0000372  -1.380000000000e3
    X0000573  C0000373  -1.104000000000e4
    MARK      'MARKER'                 'INTEND'
    MARK      'MARKER'                 'INTORG'
    X0000574  C0000374  -1.380000000000e3
    X0000574  C0000375  -1.104000000000e4
    MARK      'MARKER'                 'INTEND'
    MARK      'MARKER'                 'INTORG'
    X0000575  C0000376  -1.380000000000e3
    X0000575  C0000377  -1.104000000000e4
    MARK      'MARKER'                 'INTEND'
    MARK      'MARKER'                 'INTORG'
    X0000576  C0000378  -1.380000000000e3
    X0000576  C0000379  -1.104000000000e4
    MARK      'MARKER'                 'INTEND'
    MARK      'MARKER'                 'INTORG'
    X0000577  C0000380  -1.380000000000e3
    X0000577  C0000381  -1.104000000000e4
    MARK      'MARKER'                 'INTEND'
    MARK      'MARKER'                 'INTORG'
    X0000578  C0000382  -1.380000000000e3
    X0000578  C0000383  -1.104000000000e4
    MARK      'MARKER'                 'INTEND'
    MARK      'MARKER'                 'INTORG'
    X0000579  C0000384  -1.380000000000e3
    X0000579  C0000385  -1.104000000000e4
    MARK      'MARKER'                 'INTEND'
    MARK      'MARKER'                 'INTORG'
    X0000580  C0000386  -1.380000000000e3
    X0000580  C0000387  -1.104000000000e4
    MARK      'MARKER'                 'INTEND'
    MARK      'MARKER'                 'INTORG'
    X0000581  C0000388  -1.380000000000e3
    X0000581  C0000389  -1.104000000000e4
    MARK      'MARKER'                 'INTEND'
    MARK      'MARKER'                 'INTORG'
    X0000582  C0000390  -1.380000000000e3
    X0000582  C0000391  -1.104000000000e4
    MARK      'MARKER'                 'INTEND'
    MARK      'MARKER'                 'INTORG'
    X0000583  C0000392  -1.380000000000e3
    X0000583  C0000393  -1.104000000000e4
    MARK      'MARKER'                 'INTEND'
    MARK      'MARKER'                 'INTORG'
    X0000584  C0000394  -1.380000000000e3
    X0000584  C0000395  -1.104000000000e4
    MARK      'MARKER'                 'INTEND'
    MARK      'MARKER'                 'INTORG'
    X0000585  C0000396  -1.380000000000e3
    X0000585  C0000397  -1.104000000000e4
    MARK      'MARKER'                 'INTEND'
    MARK      'MARKER'                 'INTORG'
    X0000586  C0000398  -1.380000000000e3
    X0000586  C0000399  -1.104000000000e4
    MARK      'MARKER'                 'INTEND'
    MARK      'MARKER'                 'INTORG'
    X0000587  C0000400  -1.380000000000e3
    X0000587  C0000401  -1.104000000000e4
    MARK      'MARKER'                 'INTEND'
    MARK      'MARKER'                 'INTORG'
    X0000588  C0000402  -1.380000000000e3
    X0000588  C0000403  -1.104000000000e4
    MARK      'MARKER'                 'INTEND'
    MARK      'MARKER'                 'INTORG'
    X0000589  C0000404  -1.380000000000e3
    X0000589  C0000405  -1.104000000000e4
    MARK      'MARKER'                 'INTEND'
    MARK      'MARKER'                 'INTORG'
    X0000590  C0000406  -1.380000000000e3
    X0000590  C0000407  -1.104000000000e4
    MARK      'MARKER'                 'INTEND'
    MARK      'MARKER'                 'INTORG'
    X0000591  C0000408  -1.380000000000e3
    X0000591  C0000409  -1.104000000000e4
    MARK      'MARKER'                 'INTEND'
    MARK      'MARKER'                 'INTORG'
    X0000592  C0000410  -1.380000000000e3
    X0000592  C0000411  -1.104000000000e4
    MARK      'MARKER'                 'INTEND'
    MARK      'MARKER'                 'INTORG'
    X0000593  C0000412  -1.380000000000e3
    X0000593  C0000413  -1.104000000000e4
    MARK      'MARKER'                 'INTEND'
    MARK      'MARKER'                 'INTORG'
    X0000594  C0000414  -1.380000000000e3
    X0000594  C0000415  -1.104000000000e4
    MARK      'MARKER'                 'INTEND'
    MARK      'MARKER'                 'INTORG'
    X0000595  C0000416  -1.380000000000e3
    X0000595  C0000417  -1.104000000000e4
    MARK      'MARKER'                 'INTEND'
    MARK      'MARKER'                 'INTORG'
    X0000596  C0000418  -1.380000000000e3
    X0000596  C0000419  -1.104000000000e4
    MARK      'MARKER'                 'INTEND'
    MARK      'MARKER'                 'INTORG'
    X0000597  C0000420  -1.380000000000e3
    X0000597  C0000421  -1.104000000000e4
    MARK      'MARKER'                 'INTEND'
    MARK      'MARKER'                 'INTORG'
    X0000598  C0000422  -1.380000000000e3
    X0000598  C0000423  -1.104000000000e4
    MARK      'MARKER'                 'INTEND'
    MARK      'MARKER'                 'INTORG'
    X0000599  C0000424  -1.380000000000e3
    X0000599  C0000425  -1.104000000000e4
    MARK      'MARKER'                 'INTEND'
    MARK      'MARKER'                 'INTORG'
    X0000600  C0000426  -1.380000000000e3
    X0000600  C0000427  -1.104000000000e4
    MARK      'MARKER'                 'INTEND'
    MARK      'MARKER'                 'INTORG'
    X0000601  C0000428  -1.380000000000e3
    X0000601  C0000429  -1.104000000000e4
    MARK      'MARKER'                 'INTEND'
    MARK      'MARKER'                 'INTORG'
    X0000602  C0000474   2.388933333333e3
    MARK      'MARKER'                 'INTEND'
    MARK      'MARKER'                 'INTORG'
    X0000603  C0000476   1.104000000000e4
    MARK      'MARKER'                 'INTEND'
    MARK      'MARKER'                 'INTORG'
    X0000604  C0000478   1.104000000000e4
    MARK      'MARKER'                 'INTEND'
    MARK      'MARKER'                 'INTORG'
    X0000605  C0000480   1.104000000000e4
    MARK      'MARKER'                 'INTEND'
    MARK      'MARKER'                 'INTORG'
    X0000606  C0000482   1.104000000000e4
    MARK      'MARKER'                 'INTEND'
    MARK      'MARKER'                 'INTORG'
    X0000607  C0000484   1.104000000000e4
    MARK      'MARKER'                 'INTEND'
    MARK      'MARKER'                 'INTORG'
    X0000608  C0000486   1.104000000000e4
    MARK      'MARKER'                 'INTEND'
    MARK      'MARKER'                 'INTORG'
    X0000609  C0000488   1.104000000000e4
    MARK      'MARKER'                 'INTEND'
    MARK      'MARKER'                 'INTORG'
    X0000610  C0000490   1.104000000000e4
    MARK      'MARKER'                 'INTEND'
    MARK      'MARKER'                 'INTORG'
    X0000611  C0000492   1.104000000000e4
    MARK      'MARKER'                 'INTEND'
    MARK      'MARKER'                 'INTORG'
    X0000612  C0000494   1.104000000000e4
    MARK      'MARKER'                 'INTEND'
    MARK      'MARKER'                 'INTORG'
    X0000613  C0000496   1.104000000000e4
    MARK      'MARKER'                 'INTEND'
    MARK      'MARKER'                 'INTORG'
    X0000614  C0000498   1.104000000000e4
    MARK      'MARKER'                 'INTEND'
    MARK      'MARKER'                 'INTORG'
    X0000615  C0000500   1.104000000000e4
    MARK      'MARKER'                 'INTEND'
    MARK      'MARKER'                 'INTORG'
    X0000616  C0000502   1.104000000000e4
    MARK      'MARKER'                 'INTEND'
    MARK      'MARKER'                 'INTORG'
    X0000617  C0000504   1.104000000000e4
    MARK      'MARKER'                 'INTEND'
    MARK      'MARKER'                 'INTORG'
    X0000618  C0000506   1.104000000000e4
    MARK      'MARKER'                 'INTEND'
    MARK      'MARKER'                 'INTORG'
    X0000619  C0000508   1.104000000000e4
    MARK      'MARKER'                 'INTEND'
    MARK      'MARKER'                 'INTORG'
    X0000620  C0000510   1.104000000000e4
    MARK      'MARKER'                 'INTEND'
    MARK      'MARKER'                 'INTORG'
    X0000621  C0000512   1.104000000000e4
    MARK      'MARKER'                 'INTEND'
    MARK      'MARKER'                 'INTORG'
    X0000622  C0000514   1.104000000000e4
    MARK      'MARKER'                 'INTEND'
    MARK      'MARKER'                 'INTORG'
    X0000623  C0000516   1.104000000000e4
    MARK      'MARKER'                 'INTEND'
    MARK      'MARKER'                 'INTORG'
    X0000624  C0000518   1.104000000000e4
    MARK      'MARKER'                 'INTEND'
    MARK      'MARKER'                 'INTORG'
    X0000625  C0000520   1.104000000000e4
    MARK      'MARKER'                 'INTEND'
    MARK      'MARKER'                 'INTORG'
    X0000626  C0000522   1.104000000000e4
    MARK      'MARKER'                 'INTEND'
    MARK      'MARKER'                 'INTORG'
    X0000627  C0000524   1.104000000000e4
    MARK      'MARKER'                 'INTEND'
    MARK      'MARKER'                 'INTORG'
    X0000628  C0000526   1.104000000000e4
    MARK      'MARKER'                 'INTEND'
    MARK      'MARKER'                 'INTORG'
    X0000629  C0000528   1.104000000000e4
    MARK      'MARKER'                 'INTEND'
    MARK      'MARKER'                 'INTORG'
    X0000630  C0000530   1.104000000000e4
    MARK      'MARKER'                 'INTEND'
    MARK      'MARKER'                 'INTORG'
    X0000631  C0000532   1.104000000000e4
    MARK      'MARKER'                 'INTEND'
    MARK      'MARKER'                 'INTORG'
    X0000632  C0000534   1.104000000000e4
    MARK      'MARKER'                 'INTEND'
    MARK      'MARKER'                 'INTORG'
    X0000633  C0000536   1.104000000000e4
    MARK      'MARKER'                 'INTEND'
    MARK      'MARKER'                 'INTORG'
    X0000634  C0000538   1.104000000000e4
    MARK      'MARKER'                 'INTEND'
    MARK      'MARKER'                 'INTORG'
    X0000635  C0000540   1.104000000000e4
    MARK      'MARKER'                 'INTEND'
    MARK      'MARKER'                 'INTORG'
    X0000636  C0000542   1.104000000000e4
    MARK      'MARKER'                 'INTEND'
    MARK      'MARKER'                 'INTORG'
    X0000637  C0000544   1.104000000000e4
    MARK      'MARKER'                 'INTEND'
    MARK      'MARKER'                 'INTORG'
    X0000638  C0000546   1.104000000000e4
    MARK      'MARKER'                 'INTEND'
    MARK      'MARKER'                 'INTORG'
    X0000639  C0000548   1.104000000000e4
    MARK      'MARKER'                 'INTEND'
    MARK      'MARKER'                 'INTORG'
    X0000640  C0000550   1.104000000000e4
    MARK      'MARKER'                 'INTEND'
    MARK      'MARKER'                 'INTORG'
    X0000641  C0000552   1.104000000000e4
    MARK      'MARKER'                 'INTEND'
    MARK      'MARKER'                 'INTORG'
    X0000642  C0000554   1.104000000000e4
    MARK      'MARKER'                 'INTEND'
    MARK      'MARKER'                 'INTORG'
    X0000643  C0000556   1.104000000000e4
    MARK      'MARKER'                 'INTEND'
    MARK      'MARKER'                 'INTORG'
    X0000644  C0000558   1.104000000000e4
    MARK      'MARKER'                 'INTEND'
    MARK      'MARKER'                 'INTORG'
    X0000645  C0000688  -1.731111111111e2
    X0000645  C0000689   2.596666666667e2
    MARK      'MARKER'                 'INTEND'
    MARK      'MARKER'                 'INTORG'
    X0000646  C0000690  -8.000000000000e2
    X0000646  C0000691   1.200000000000e3
    MARK      'MARKER'                 'INTEND'
    MARK      'MARKER'                 'INTORG'
    X0000647  C0000692  -8.000000000000e2
    X0000647  C0000693   1.200000000000e3
    MARK      'MARKER'                 'INTEND'
    MARK      'MARKER'                 'INTORG'
    X0000648  C0000694  -8.000000000000e2
    X0000648  C0000695   1.200000000000e3
    MARK      'MARKER'                 'INTEND'
    MARK      'MARKER'                 'INTORG'
    X0000649  C0000696  -8.000000000000e2
    X0000649  C0000697   1.200000000000e3
    MARK      'MARKER'                 'INTEND'
    MARK      'MARKER'                 'INTORG'
    X0000650  C0000698  -8.000000000000e2
    X0000650  C0000699   1.200000000000e3
    MARK      'MARKER'                 'INTEND'
    MARK      'MARKER'                 'INTORG'
    X0000651  C0000700  -8.000000000000e2
    X0000651  C0000701   1.200000000000e3
    MARK      'MARKER'                 'INTEND'
    MARK      'MARKER'                 'INTORG'
    X0000652  C0000702  -8.000000000000e2
    X0000652  C0000703   1.200000000000e3
    MARK      'MARKER'                 'INTEND'
    MARK      'MARKER'                 'INTORG'
    X0000653  C0000704  -8.000000000000e2
    X0000653  C0000705   1.200000000000e3
    MARK      'MARKER'                 'INTEND'
    MARK      'MARKER'                 'INTORG'
    X0000654  C0000706  -8.000000000000e2
    X0000654  C0000707   1.200000000000e3
    MARK      'MARKER'                 'INTEND'
    MARK      'MARKER'                 'INTORG'
    X0000655  C0000708  -8.000000000000e2
    X0000655  C0000709   1.200000000000e3
    MARK      'MARKER'                 'INTEND'
    MARK      'MARKER'                 'INTORG'
    X0000656  C0000710  -8.000000000000e2
    X0000656  C0000711   1.200000000000e3
    MARK      'MARKER'                 'INTEND'
    MARK      'MARKER'                 'INTORG'
    X0000657  C0000712  -8.000000000000e2
    X0000657  C0000713   1.200000000000e3
    MARK      'MARKER'                 'INTEND'
    MARK      'MARKER'                 'INTORG'
    X0000658  C0000714  -8.000000000000e2
    X0000658  C0000715   1.200000000000e3
    MARK      'MARKER'                 'INTEND'
    MARK      'MARKER'                 'INTORG'
    X0000659  C0000716  -8.000000000000e2
    X0000659  C0000717   1.200000000000e3
    MARK      'MARKER'                 'INTEND'
    MARK      'MARKER'                 'INTORG'
    X0000660  C0000718  -8.000000000000e2
    X0000660  C0000719   1.200000000000e3
    MARK      'MARKER'                 'INTEND'
    MARK      'MARKER'                 'INTORG'
    X0000661  C0000720  -8.000000000000e2
    X0000661  C0000721   1.200000000000e3
    MARK      'MARKER'                 'INTEND'
    MARK      'MARKER'                 'INTORG'
    X0000662  C0000722  -8.000000000000e2
    X0000662  C0000723   1.200000000000e3
    MARK      'MARKER'                 'INTEND'
    MARK      'MARKER'                 'INTORG'
    X0000663  C0000724  -8.000000000000e2
    X0000663  C0000725   1.200000000000e3
    MARK      'MARKER'                 'INTEND'
    MARK      'MARKER'                 'INTORG'
    X0000664  C0000726  -8.000000000000e2
    X0000664  C0000727   1.200000000000e3
    MARK      'MARKER'                 'INTEND'
    MARK      'MARKER'                 'INTORG'
    X0000665  C0000728  -8.000000000000e2
    X0000665  C0000729   1.200000000000e3
    MARK      'MARKER'                 'INTEND'
    MARK      'MARKER'                 'INTORG'
    X0000666  C0000730  -8.000000000000e2
    X0000666  C0000731   1.200000000000e3
    MARK      'MARKER'                 'INTEND'
    MARK      'MARKER'                 'INTORG'
    X0000667  C0000732  -8.000000000000e2
    X0000667  C0000733   1.200000000000e3
    MARK      'MARKER'                 'INTEND'
    MARK      'MARKER'                 'INTORG'
    X0000668  C0000734  -8.000000000000e2
    X0000668  C0000735   1.200000000000e3
    MARK      'MARKER'                 'INTEND'
    MARK      'MARKER'                 'INTORG'
    X0000669  C0000736  -8.000000000000e2
    X0000669  C0000737   1.200000000000e3
    MARK      'MARKER'                 'INTEND'
    MARK      'MARKER'                 'INTORG'
    X0000670  C0000738  -8.000000000000e2
    X0000670  C0000739   1.200000000000e3
    MARK      'MARKER'                 'INTEND'
    MARK      'MARKER'                 'INTORG'
    X0000671  C0000740  -8.000000000000e2
    X0000671  C0000741   1.200000000000e3
    MARK      'MARKER'                 'INTEND'
    MARK      'MARKER'                 'INTORG'
    X0000672  C0000742  -8.000000000000e2
    X0000672  C0000743   1.200000000000e3
    MARK      'MARKER'                 'INTEND'
    MARK      'MARKER'                 'INTORG'
    X0000673  C0000744  -8.000000000000e2
    X0000673  C0000745   1.200000000000e3
    MARK      'MARKER'                 'INTEND'
    MARK      'MARKER'                 'INTORG'
    X0000674  C0000746  -8.000000000000e2
    X0000674  C0000747   1.200000000000e3
    MARK      'MARKER'                 'INTEND'
    MARK      'MARKER'                 'INTORG'
    X0000675  C0000748  -8.000000000000e2
    X0000675  C0000749   1.200000000000e3
    MARK      'MARKER'                 'INTEND'
    MARK      'MARKER'                 'INTORG'
    X0000676  C0000750  -8.000000000000e2
    X0000676  C0000751   1.200000000000e3
    MARK      'MARKER'                 'INTEND'
    MARK      'MARKER'                 'INTORG'
    X0000677  C0000752  -8.000000000000e2
    X0000677  C0000753   1.200000000000e3
    MARK      'MARKER'                 'INTEND'
    MARK      'MARKER'                 'INTORG'
    X0000678  C0000754  -8.000000000000e2
    X0000678  C0000755   1.200000000000e3
    MARK      'MARKER'                 'INTEND'
    MARK      'MARKER'                 'INTORG'
    X0000679  C0000756  -8.000000000000e2
    X0000679  C0000757   1.200000000000e3
    MARK      'MARKER'                 'INTEND'
    MARK      'MARKER'                 'INTORG'
    X0000680  C0000758  -8.000000000000e2
    X0000680  C0000759   1.200000000000e3
    MARK      'MARKER'                 'INTEND'
    MARK      'MARKER'                 'INTORG'
    X0000681  C0000760  -8.000000000000e2
    X0000681  C0000761   1.200000000000e3
    MARK      'MARKER'                 'INTEND'
    MARK      'MARKER'                 'INTORG'
    X0000682  C0000762  -8.000000000000e2
    X0000682  C0000763   1.200000000000e3
    MARK      'MARKER'                 'INTEND'
    MARK      'MARKER'                 'INTORG'
    X0000683  C0000764  -8.000000000000e2
    X0000683  C0000765   1.200000000000e3
    MARK      'MARKER'                 'INTEND'
    MARK      'MARKER'                 'INTORG'
    X0000684  C0000766  -8.000000000000e2
    X0000684  C0000767   1.200000000000e3
    MARK      'MARKER'                 'INTEND'
    MARK      'MARKER'                 'INTORG'
    X0000685  C0000768  -8.000000000000e2
    X0000685  C0000769   1.200000000000e3
    MARK      'MARKER'                 'INTEND'
    MARK      'MARKER'                 'INTORG'
    X0000686  C0000770  -8.000000000000e2
    X0000686  C0000771   1.200000000000e3
    MARK      'MARKER'                 'INTEND'
    MARK      'MARKER'                 'INTORG'
    X0000687  C0000772  -8.000000000000e2
    X0000687  C0000773   1.200000000000e3
    MARK      'MARKER'                 'INTEND'
RHS
    RHS       C0000000  -1.563506900000e2
    RHS       C0000001  -7.232749000000e2
    RHS       C0000002  -4.305826000000e2
    RHS       C0000003   1.959387000000e1
    RHS       C0000004   2.887108000000e2
    RHS       C0000005   4.081834000000e2
    RHS       C0000006   2.975788000000e2
    RHS       C0000007   2.272048300000e2
    RHS       C0000008   2.022789500000e2
    RHS       C0000009   1.972237700000e2
    RHS       C0000010   1.996096000000e2
    RHS       C0000011   1.963779600000e2
    RHS       C0000012   1.936916400000e2
    RHS       C0000013   2.006416800000e2
    RHS       C0000014   2.168849500000e2
    RHS       C0000015   3.263758500000e2
    RHS       C0000016   3.546927600000e2
    RHS       C0000017   3.599667000000e2
    RHS       C0000018   1.009058600000e2
    RHS       C0000019  -4.964941000000e2
    RHS       C0000020  -1.619160240000e3
    RHS       C0000021  -2.261595060000e3
    RHS       C0000022  -2.355702270000e3
    RHS       C0000023  -2.466053300000e3
    RHS       C0000024  -2.488378000000e3
    RHS       C0000025  -2.192974900000e3
    RHS       C0000026  -1.536857600000e3
    RHS       C0000027  -5.630311300000e2
    RHS       C0000028   1.499358000000e2
    RHS       C0000029   3.985334000000e2
    RHS       C0000030   2.975788000000e2
    RHS       C0000031   2.272048300000e2
    RHS       C0000032   2.022789500000e2
    RHS       C0000033   1.972237700000e2
    RHS       C0000034   1.996096000000e2
    RHS       C0000035   1.963779600000e2
    RHS       C0000036   1.936916400000e2
    RHS       C0000037   2.006416800000e2
    RHS       C0000038   2.168849500000e2
    RHS       C0000039   3.263758500000e2
    RHS       C0000040   3.494177600000e2
    RHS       C0000041   2.275667000000e2
    RHS       C0000042   5.062558600000e2
    RHS       C0000043   0.000000000000e0
    RHS       C0000044   2.489135593333e3
    RHS       C0000045   0.000000000000e0
    RHS       C0000046   1.142682510000e4
    RHS       C0000047   0.000000000000e0
    RHS       C0000048   1.147216740000e4
    RHS       C0000049   0.000000000000e0
    RHS       C0000050   1.152836887000e4
    RHS       C0000051   0.000000000000e0
    RHS       C0000052   1.147358580000e4
    RHS       C0000053   0.000000000000e0
    RHS       C0000054   1.146735840000e4
    RHS       C0000055   0.000000000000e0
    RHS       C0000056   1.133757880000e4
    RHS       C0000057   0.000000000000e0
    RHS       C0000058   1.126720483000e4
    RHS       C0000059   0.000000000000e0
    RHS       C0000060   1.124227895000e4
    RHS       C0000061   0.000000000000e0
    RHS       C0000062   1.123722377000e4
    RHS       C0000063   0.000000000000e0
    RHS       C0000064   1.123960960000e4
    RHS       C0000065   0.000000000000e0
    RHS       C0000066   1.123637796000e4
    RHS       C0000067   0.000000000000e0
    RHS       C0000068   1.123369164000e4
    RHS       C0000069   0.000000000000e0
    RHS       C0000070   1.124064168000e4
    RHS       C0000071   0.000000000000e0
    RHS       C0000072   1.125688495000e4
    RHS       C0000073   0.000000000000e0
    RHS       C0000074   1.136637585000e4
    RHS       C0000075   0.000000000000e0
    RHS       C0000076   1.139789276000e4
    RHS       C0000077   0.000000000000e0
    RHS       C0000078   1.147569170000e4
    RHS       C0000079   0.000000000000e0
    RHS       C0000080   1.154625586000e4
    RHS       C0000081   0.000000000000e0
    RHS       C0000082   1.166793090000e4
    RHS       C0000083   0.000000000000e0
    RHS       C0000084   1.155556476000e4
    RHS       C0000085   0.000000000000e0
    RHS       C0000086   1.155387994000e4
    RHS       C0000087   0.000000000000e0
    RHS       C0000088   1.154567273000e4
    RHS       C0000089   0.000000000000e0
    RHS       C0000090   1.154647170000e4
    RHS       C0000091   0.000000000000e0
    RHS       C0000092   1.150247200000e4
    RHS       C0000093   0.000000000000e0
    RHS       C0000094   1.142682510000e4
    RHS       C0000095   0.000000000000e0
    RHS       C0000096   1.147216740000e4
    RHS       C0000097   0.000000000000e0
    RHS       C0000098   1.152836887000e4
    RHS       C0000099   0.000000000000e0
    RHS       C0000100   1.147358580000e4
    RHS       C0000101   0.000000000000e0
    RHS       C0000102   1.146735840000e4
    RHS       C0000103   0.000000000000e0
    RHS       C0000104   1.133757880000e4
    RHS       C0000105   0.000000000000e0
    RHS       C0000106   1.126720483000e4
    RHS       C0000107   0.000000000000e0
    RHS       C0000108   1.124227895000e4
    RHS       C0000109   0.000000000000e0
    RHS       C0000110   1.123722377000e4
    RHS       C0000111   0.000000000000e0
    RHS       C0000112   1.123960960000e4
    RHS       C0000113   0.000000000000e0
    RHS       C0000114   1.123637796000e4
    RHS       C0000115   0.000000000000e0
    RHS       C0000116   1.123369164000e4
    RHS       C0000117   0.000000000000e0
    RHS       C0000118   1.124064168000e4
    RHS       C0000119   0.000000000000e0
    RHS       C0000120   1.125688495000e4
    RHS       C0000121   0.000000000000e0
    RHS       C0000122   1.136637585000e4
    RHS       C0000123   0.000000000000e0
    RHS       C0000124   1.139789276000e4
    RHS       C0000125   0.000000000000e0
    RHS       C0000126   1.147569170000e4
    RHS       C0000127   0.000000000000e0
    RHS       C0000128   1.154625586000e4
    RHS       C0000129  -1.790000000000e4
    RHS       C0000130   0.000000000000e0
    RHS       C0000131  -1.790000000000e4
    RHS       C0000132   0.000000000000e0
    RHS       C0000133  -1.790000000000e4
    RHS       C0000134   0.000000000000e0
    RHS       C0000135  -1.790000000000e4
    RHS       C0000136   0.000000000000e0
    RHS       C0000137  -1.790000000000e4
    RHS       C0000138   0.000000000000e0
    RHS       C0000139  -1.790000000000e4
    RHS       C0000140   0.000000000000e0
    RHS       C0000141  -1.790000000000e4
    RHS       C0000142   0.000000000000e0
    RHS       C0000143  -1.790000000000e4
    RHS       C0000144   0.000000000000e0
    RHS       C0000145  -1.790000000000e4
    RHS       C0000146   0.000000000000e0
    RHS       C0000147  -1.790000000000e4
    RHS       C0000148   0.000000000000e0
    RHS       C0000149  -1.790000000000e4
    RHS       C0000150   0.000000000000e0
    RHS       C0000151  -1.790000000000e4
    RHS       C0000152   0.000000000000e0
    RHS       C0000153  -1.790000000000e4
    RHS       C0000154   0.000000000000e0
    RHS       C0000155  -1.790000000000e4
    RHS       C0000156   0.000000000000e0
    RHS       C0000157  -1.790000000000e4
    RHS       C0000158   0.000000000000e0
    RHS       C0000159  -1.790000000000e4
    RHS       C0000160   0.000000000000e0
    RHS       C0000161  -1.790000000000e4
    RHS       C0000162   0.000000000000e0
    RHS       C0000163  -1.790000000000e4
    RHS       C0000164   0.000000000000e0
    RHS       C0000165  -1.790000000000e4
    RHS       C0000166   0.000000000000e0
    RHS       C0000167  -1.790000000000e4
    RHS       C0000168   0.000000000000e0
    RHS       C0000169  -1.790000000000e4
    RHS       C0000170   0.000000000000e0
    RHS       C0000171  -1.790000000000e4
    RHS       C0000172   0.000000000000e0
    RHS       C0000173  -1.790000000000e4
    RHS       C0000174   0.000000000000e0
    RHS       C0000175  -1.790000000000e4
    RHS       C0000176   0.000000000000e0
    RHS       C0000177  -1.790000000000e4
    RHS       C0000178   0.000000000000e0
    RHS       C0000179  -1.790000000000e4
    RHS       C0000180   0.000000000000e0
    RHS       C0000181  -1.790000000000e4
    RHS       C0000182   0.000000000000e0
    RHS       C0000183  -1.790000000000e4
    RHS       C0000184   0.000000000000e0
    RHS       C0000185  -1.790000000000e4
    RHS       C0000186   0.000000000000e0
    RHS       C0000187  -1.790000000000e4
    RHS       C0000188   0.000000000000e0
    RHS       C0000189  -1.790000000000e4
    RHS       C0000190   0.000000000000e0
    RHS       C0000191  -1.790000000000e4
    RHS       C0000192   0.000000000000e0
    RHS       C0000193  -1.790000000000e4
    RHS       C0000194   0.000000000000e0
    RHS       C0000195  -1.790000000000e4
    RHS       C0000196   0.000000000000e0
    RHS       C0000197  -1.790000000000e4
    RHS       C0000198   0.000000000000e0
    RHS       C0000199  -1.790000000000e4
    RHS       C0000200   0.000000000000e0
    RHS       C0000201  -1.790000000000e4
    RHS       C0000202   0.000000000000e0
    RHS       C0000203  -1.790000000000e4
    RHS       C0000204   0.000000000000e0
    RHS       C0000205  -1.790000000000e4
    RHS       C0000206   0.000000000000e0
    RHS       C0000207  -1.790000000000e4
    RHS       C0000208   0.000000000000e0
    RHS       C0000209  -1.790000000000e4
    RHS       C0000210   0.000000000000e0
    RHS       C0000211  -1.790000000000e4
    RHS       C0000212   0.000000000000e0
    RHS       C0000213  -1.790000000000e4
    RHS       C0000214   0.000000000000e0
    RHS       C0000215  -3.763200000000e3
    RHS       C0000216   3.840000000000e2
    RHS       C0000217  -3.763200000000e3
    RHS       C0000218   3.840000000000e2
    RHS       C0000219  -3.763200000000e3
    RHS       C0000220   3.840000000000e2
    RHS       C0000221  -3.763200000000e3
    RHS       C0000222   3.840000000000e2
    RHS       C0000223  -3.763200000000e3
    RHS       C0000224   3.840000000000e2
    RHS       C0000225  -3.763200000000e3
    RHS       C0000226   3.840000000000e2
    RHS       C0000227  -3.763200000000e3
    RHS       C0000228   3.840000000000e2
    RHS       C0000229  -3.763200000000e3
    RHS       C0000230   3.840000000000e2
    RHS       C0000231  -3.763200000000e3
    RHS       C0000232   3.840000000000e2
    RHS       C0000233  -3.763200000000e3
    RHS       C0000234   3.840000000000e2
    RHS       C0000235  -3.763200000000e3
    RHS       C0000236   3.840000000000e2
    RHS       C0000237  -3.763200000000e3
    RHS       C0000238   3.840000000000e2
    RHS       C0000239  -3.763200000000e3
    RHS       C0000240   3.840000000000e2
    RHS       C0000241  -3.763200000000e3
    RHS       C0000242   3.840000000000e2
    RHS       C0000243  -3.763200000000e3
    RHS       C0000244   3.840000000000e2
    RHS       C0000245  -3.763200000000e3
    RHS       C0000246   3.840000000000e2
    RHS       C0000247  -3.763200000000e3
    RHS       C0000248   3.840000000000e2
    RHS       C0000249  -3.763200000000e3
    RHS       C0000250   3.840000000000e2
    RHS       C0000251  -3.763200000000e3
    RHS       C0000252   3.840000000000e2
    RHS       C0000253  -3.763200000000e3
    RHS       C0000254   3.840000000000e2
    RHS       C0000255  -3.763200000000e3
    RHS       C0000256   3.840000000000e2
    RHS       C0000257  -3.763200000000e3
    RHS       C0000258   3.840000000000e2
    RHS       C0000259  -3.763200000000e3
    RHS       C0000260   3.840000000000e2
    RHS       C0000261  -3.763200000000e3
    RHS       C0000262   3.840000000000e2
    RHS       C0000263  -3.763200000000e3
    RHS       C0000264   3.840000000000e2
    RHS       C0000265  -3.763200000000e3
    RHS       C0000266   3.840000000000e2
    RHS       C0000267  -3.763200000000e3
    RHS       C0000268   3.840000000000e2
    RHS       C0000269  -3.763200000000e3
    RHS       C0000270   3.840000000000e2
    RHS       C0000271  -3.763200000000e3
    RHS       C0000272   3.840000000000e2
    RHS       C0000273  -3.763200000000e3
    RHS       C0000274   3.840000000000e2
    RHS       C0000275  -3.763200000000e3
    RHS       C0000276   3.840000000000e2
    RHS       C0000277  -3.763200000000e3
    RHS       C0000278   3.840000000000e2
    RHS       C0000279  -3.763200000000e3
    RHS       C0000280   3.840000000000e2
    RHS       C0000281  -3.763200000000e3
    RHS       C0000282   3.840000000000e2
    RHS       C0000283  -3.763200000000e3
    RHS       C0000284   3.840000000000e2
    RHS       C0000285  -3.763200000000e3
    RHS       C0000286   3.840000000000e2
    RHS       C0000287  -3.763200000000e3
    RHS       C0000288   3.840000000000e2
    RHS       C0000289  -3.763200000000e3
    RHS       C0000290   3.840000000000e2
    RHS       C0000291  -3.763200000000e3
    RHS       C0000292   3.840000000000e2
    RHS       C0000293  -3.763200000000e3
    RHS       C0000294   3.840000000000e2
    RHS       C0000295  -3.763200000000e3
    RHS       C0000296   3.840000000000e2
    RHS       C0000297  -3.763200000000e3
    RHS       C0000298   3.840000000000e2
    RHS       C0000299  -3.763200000000e3
    RHS       C0000300   3.840000000000e2
    RHS       C0000301   9.540721000000e3
    RHS       C0000302   0.000000000000e0
    RHS       C0000303   0.000000000000e0
    RHS       C0000304   0.000000000000e0
    RHS       C0000305   0.000000000000e0
    RHS       C0000306   0.000000000000e0
    RHS       C0000307   0.000000000000e0
    RHS       C0000308   0.000000000000e0
    RHS       C0000309   0.000000000000e0
    RHS       C0000310   0.000000000000e0
    RHS       C0000311   0.000000000000e0
    RHS       C0000312   0.000000000000e0
    RHS       C0000313   0.000000000000e0
    RHS       C0000314   0.000000000000e0
    RHS       C0000315   0.000000000000e0
    RHS       C0000316   0.000000000000e0
    RHS       C0000317   0.000000000000e0
    RHS       C0000318   0.000000000000e0
    RHS       C0000319   0.000000000000e0
    RHS       C0000320   0.000000000000e0
    RHS       C0000321   0.000000000000e0
    RHS       C0000322   0.000000000000e0
    RHS       C0000323   0.000000000000e0
    RHS       C0000324   0.000000000000e0
    RHS       C0000325   0.000000000000e0
    RHS       C0000326   0.000000000000e0
    RHS       C0000327   0.000000000000e0
    RHS       C0000328   0.000000000000e0
    RHS       C0000329   0.000000000000e0
    RHS       C0000330   0.000000000000e0
    RHS       C0000331   0.000000000000e0
    RHS       C0000332   0.000000000000e0
    RHS       C0000333   0.000000000000e0
    RHS       C0000334   0.000000000000e0
    RHS       C0000335   0.000000000000e0
    RHS       C0000336   0.000000000000e0
    RHS       C0000337   0.000000000000e0
    RHS       C0000338   0.000000000000e0
    RHS       C0000339   0.000000000000e0
    RHS       C0000340   0.000000000000e0
    RHS       C0000341   0.000000000000e0
    RHS       C0000342   0.000000000000e0
    RHS       C0000343   0.000000000000e0
    RHS       C0000344   0.000000000000e0
    RHS       C0000345   0.000000000000e0
    RHS       C0000346   0.000000000000e0
    RHS       C0000347   0.000000000000e0
    RHS       C0000348   0.000000000000e0
    RHS       C0000349   0.000000000000e0
    RHS       C0000350   0.000000000000e0
    RHS       C0000351   0.000000000000e0
    RHS       C0000352   0.000000000000e0
    RHS       C0000353   0.000000000000e0
    RHS       C0000354   0.000000000000e0
    RHS       C0000355   0.000000000000e0
    RHS       C0000356   0.000000000000e0
    RHS       C0000357   0.000000000000e0
    RHS       C0000358   0.000000000000e0
    RHS       C0000359   0.000000000000e0
    RHS       C0000360   0.000000000000e0
    RHS       C0000361   0.000000000000e0
    RHS       C0000362   0.000000000000e0
    RHS       C0000363   0.000000000000e0
    RHS       C0000364   0.000000000000e0
    RHS       C0000365   0.000000000000e0
    RHS       C0000366   0.000000000000e0
    RHS       C0000367   0.000000000000e0
    RHS       C0000368   0.000000000000e0
    RHS       C0000369   0.000000000000e0
    RHS       C0000370   0.000000000000e0
    RHS       C0000371   0.000000000000e0
    RHS       C0000372   0.000000000000e0
    RHS       C0000373   0.000000000000e0
    RHS       C0000374   0.000000000000e0
    RHS       C0000375   0.000000000000e0
    RHS       C0000376   0.000000000000e0
    RHS       C0000377   0.000000000000e0
    RHS       C0000378   0.000000000000e0
    RHS       C0000379   0.000000000000e0
    RHS       C0000380   0.000000000000e0
    RHS       C0000381   0.000000000000e0
    RHS       C0000382   0.000000000000e0
    RHS       C0000383   0.000000000000e0
    RHS       C0000384   0.000000000000e0
    RHS       C0000385   0.000000000000e0
    RHS       C0000386   0.000000000000e0
    RHS       C0000387   0.000000000000e0
    RHS       C0000388   0.000000000000e0
    RHS       C0000389   0.000000000000e0
    RHS       C0000390   0.000000000000e0
    RHS       C0000391   0.000000000000e0
    RHS       C0000392   0.000000000000e0
    RHS       C0000393   0.000000000000e0
    RHS       C0000394   0.000000000000e0
    RHS       C0000395   0.000000000000e0
    RHS       C0000396   0.000000000000e0
    RHS       C0000397   0.000000000000e0
    RHS       C0000398   0.000000000000e0
    RHS       C0000399   0.000000000000e0
    RHS       C0000400   0.000000000000e0
    RHS       C0000401   0.000000000000e0
    RHS       C0000402   0.000000000000e0
    RHS       C0000403   0.000000000000e0
    RHS       C0000404   0.000000000000e0
    RHS       C0000405   0.000000000000e0
    RHS       C0000406   0.000000000000e0
    RHS       C0000407   0.000000000000e0
    RHS       C0000408   0.000000000000e0
    RHS       C0000409   0.000000000000e0
    RHS       C0000410   0.000000000000e0
    RHS       C0000411   0.000000000000e0
    RHS       C0000412   0.000000000000e0
    RHS       C0000413   0.000000000000e0
    RHS       C0000414   0.000000000000e0
    RHS       C0000415   0.000000000000e0
    RHS       C0000416   0.000000000000e0
    RHS       C0000417   0.000000000000e0
    RHS       C0000418   0.000000000000e0
    RHS       C0000419   0.000000000000e0
    RHS       C0000420   0.000000000000e0
    RHS       C0000421   0.000000000000e0
    RHS       C0000422   0.000000000000e0
    RHS       C0000423   0.000000000000e0
    RHS       C0000424   0.000000000000e0
    RHS       C0000425   0.000000000000e0
    RHS       C0000426   0.000000000000e0
    RHS       C0000427   0.000000000000e0
    RHS       C0000428   0.000000000000e0
    RHS       C0000429   0.000000000000e0
    RHS       C0000430   0.000000000000e0
    RHS       C0000431   0.000000000000e0
    RHS       C0000432   0.000000000000e0
    RHS       C0000433   0.000000000000e0
    RHS       C0000434   0.000000000000e0
    RHS       C0000435   0.000000000000e0
    RHS       C0000436   0.000000000000e0
    RHS       C0000437   0.000000000000e0
    RHS       C0000438   0.000000000000e0
    RHS       C0000439   0.000000000000e0
    RHS       C0000440   0.000000000000e0
    RHS       C0000441   0.000000000000e0
    RHS       C0000442   0.000000000000e0
    RHS       C0000443   0.000000000000e0
    RHS       C0000444   0.000000000000e0
    RHS       C0000445   0.000000000000e0
    RHS       C0000446   0.000000000000e0
    RHS       C0000447   0.000000000000e0
    RHS       C0000448   0.000000000000e0
    RHS       C0000449   0.000000000000e0
    RHS       C0000450   0.000000000000e0
    RHS       C0000451   0.000000000000e0
    RHS       C0000452   0.000000000000e0
    RHS       C0000453   0.000000000000e0
    RHS       C0000454   0.000000000000e0
    RHS       C0000455   0.000000000000e0
    RHS       C0000456   0.000000000000e0
    RHS       C0000457   0.000000000000e0
    RHS       C0000458   0.000000000000e0
    RHS       C0000459   0.000000000000e0
    RHS       C0000460   0.000000000000e0
    RHS       C0000461   0.000000000000e0
    RHS       C0000462   0.000000000000e0
    RHS       C0000463   0.000000000000e0
    RHS       C0000464   0.000000000000e0
    RHS       C0000465   0.000000000000e0
    RHS       C0000466   0.000000000000e0
    RHS       C0000467   0.000000000000e0
    RHS       C0000468   0.000000000000e0
    RHS       C0000469   0.000000000000e0
    RHS       C0000470   0.000000000000e0
    RHS       C0000471   0.000000000000e0
    RHS       C0000472   0.000000000000e0
    RHS       C0000473   0.000000000000e0
    RHS       C0000474   2.388933333333e3
    RHS       C0000475   0.000000000000e0
    RHS       C0000476   1.104000000000e4
    RHS       C0000477   0.000000000000e0
    RHS       C0000478   1.104000000000e4
    RHS       C0000479   0.000000000000e0
    RHS       C0000480   1.104000000000e4
    RHS       C0000481   0.000000000000e0
    RHS       C0000482   1.104000000000e4
    RHS       C0000483   0.000000000000e0
    RHS       C0000484   1.104000000000e4
    RHS       C0000485   0.000000000000e0
    RHS       C0000486   1.104000000000e4
    RHS       C0000487   0.000000000000e0
    RHS       C0000488   1.104000000000e4
    RHS       C0000489   0.000000000000e0
    RHS       C0000490   1.104000000000e4
    RHS       C0000491   0.000000000000e0
    RHS       C0000492   1.104000000000e4
    RHS       C0000493   0.000000000000e0
    RHS       C0000494   1.104000000000e4
    RHS       C0000495   0.000000000000e0
    RHS       C0000496   1.104000000000e4
    RHS       C0000497   0.000000000000e0
    RHS       C0000498   1.104000000000e4
    RHS       C0000499   0.000000000000e0
    RHS       C0000500   1.104000000000e4
    RHS       C0000501   0.000000000000e0
    RHS       C0000502   1.104000000000e4
    RHS       C0000503   0.000000000000e0
    RHS       C0000504   1.104000000000e4
    RHS       C0000505   0.000000000000e0
    RHS       C0000506   1.104000000000e4
    RHS       C0000507   0.000000000000e0
    RHS       C0000508   1.104000000000e4
    RHS       C0000509   0.000000000000e0
    RHS       C0000510   1.104000000000e4
    RHS       C0000511   0.000000000000e0
    RHS       C0000512   1.104000000000e4
    RHS       C0000513   0.000000000000e0
    RHS       C0000514   1.104000000000e4
    RHS       C0000515   0.000000000000e0
    RHS       C0000516   1.104000000000e4
    RHS       C0000517   0.000000000000e0
    RHS       C0000518   1.104000000000e4
    RHS       C0000519   0.000000000000e0
    RHS       C0000520   1.104000000000e4
    RHS       C0000521   0.000000000000e0
    RHS       C0000522   1.104000000000e4
    RHS       C0000523   0.000000000000e0
    RHS       C0000524   1.104000000000e4
    RHS       C0000525   0.000000000000e0
    RHS       C0000526   1.104000000000e4
    RHS       C0000527   0.000000000000e0
    RHS       C0000528   1.104000000000e4
    RHS       C0000529   0.000000000000e0
    RHS       C0000530   1.104000000000e4
    RHS       C0000531   0.000000000000e0
    RHS       C0000532   1.104000000000e4
    RHS       C0000533   0.000000000000e0
    RHS       C0000534   1.104000000000e4
    RHS       C0000535   0.000000000000e0
    RHS       C0000536   1.104000000000e4
    RHS       C0000537   0.000000000000e0
    RHS       C0000538   1.104000000000e4
    RHS       C0000539   0.000000000000e0
    RHS       C0000540   1.104000000000e4
    RHS       C0000541   0.000000000000e0
    RHS       C0000542   1.104000000000e4
    RHS       C0000543   0.000000000000e0
    RHS       C0000544   1.104000000000e4
    RHS       C0000545   0.000000000000e0
    RHS       C0000546   1.104000000000e4
    RHS       C0000547   0.000000000000e0
    RHS       C0000548   1.104000000000e4
    RHS       C0000549   0.000000000000e0
    RHS       C0000550   1.104000000000e4
    RHS       C0000551   0.000000000000e0
    RHS       C0000552   1.104000000000e4
    RHS       C0000553   0.000000000000e0
    RHS       C0000554   1.104000000000e4
    RHS       C0000555   0.000000000000e0
    RHS       C0000556   1.104000000000e4
    RHS       C0000557   0.000000000000e0
    RHS       C0000558   1.104000000000e4
    RHS       C0000559   2.918400000000e3
    RHS       C0000560   0.000000000000e0
    RHS       C0000561   0.000000000000e0
    RHS       C0000562   0.000000000000e0
    RHS       C0000563   0.000000000000e0
    RHS       C0000564   0.000000000000e0
    RHS       C0000565   0.000000000000e0
    RHS       C0000566   0.000000000000e0
    RHS       C0000567   0.000000000000e0
    RHS       C0000568   0.000000000000e0
    RHS       C0000569   0.000000000000e0
    RHS       C0000570   0.000000000000e0
    RHS       C0000571   0.000000000000e0
    RHS       C0000572   0.000000000000e0
    RHS       C0000573   0.000000000000e0
    RHS       C0000574   0.000000000000e0
    RHS       C0000575   0.000000000000e0
    RHS       C0000576   0.000000000000e0
    RHS       C0000577   0.000000000000e0
    RHS       C0000578   0.000000000000e0
    RHS       C0000579   0.000000000000e0
    RHS       C0000580   0.000000000000e0
    RHS       C0000581   0.000000000000e0
    RHS       C0000582   0.000000000000e0
    RHS       C0000583   0.000000000000e0
    RHS       C0000584   0.000000000000e0
    RHS       C0000585   0.000000000000e0
    RHS       C0000586   0.000000000000e0
    RHS       C0000587   0.000000000000e0
    RHS       C0000588   0.000000000000e0
    RHS       C0000589   0.000000000000e0
    RHS       C0000590   0.000000000000e0
    RHS       C0000591   0.000000000000e0
    RHS       C0000592   0.000000000000e0
    RHS       C0000593   0.000000000000e0
    RHS       C0000594   0.000000000000e0
    RHS       C0000595   0.000000000000e0
    RHS       C0000596   0.000000000000e0
    RHS       C0000597   0.000000000000e0
    RHS       C0000598   0.000000000000e0
    RHS       C0000599   0.000000000000e0
    RHS       C0000600   0.000000000000e0
    RHS       C0000601   0.000000000000e0
    RHS       C0000602   0.000000000000e0
    RHS       C0000603   0.000000000000e0
    RHS       C0000604   0.000000000000e0
    RHS       C0000605   0.000000000000e0
    RHS       C0000606   0.000000000000e0
    RHS       C0000607   0.000000000000e0
    RHS       C0000608   0.000000000000e0
    RHS       C0000609   0.000000000000e0
    RHS       C0000610   0.000000000000e0
    RHS       C0000611   0.000000000000e0
    RHS       C0000612   0.000000000000e0
    RHS       C0000613   0.000000000000e0
    RHS       C0000614   0.000000000000e0
    RHS       C0000615   0.000000000000e0
    RHS       C0000616   0.000000000000e0
    RHS       C0000617   0.000000000000e0
    RHS       C0000618   0.000000000000e0
    RHS       C0000619   0.000000000000e0
    RHS       C0000620   0.000000000000e0
    RHS       C0000621   0.000000000000e0
    RHS       C0000622   0.000000000000e0
    RHS       C0000623   0.000000000000e0
    RHS       C0000624   0.000000000000e0
    RHS       C0000625   0.000000000000e0
    RHS       C0000626   0.000000000000e0
    RHS       C0000627   0.000000000000e0
    RHS       C0000628   0.000000000000e0
    RHS       C0000629   0.000000000000e0
    RHS       C0000630   0.000000000000e0
    RHS       C0000631   0.000000000000e0
    RHS       C0000632   0.000000000000e0
    RHS       C0000633   0.000000000000e0
    RHS       C0000634   0.000000000000e0
    RHS       C0000635   0.000000000000e0
    RHS       C0000636   0.000000000000e0
    RHS       C0000637   0.000000000000e0
    RHS       C0000638   0.000000000000e0
    RHS       C0000639   0.000000000000e0
    RHS       C0000640   0.000000000000e0
    RHS       C0000641   0.000000000000e0
    RHS       C0000642   0.000000000000e0
    RHS       C0000643   0.000000000000e0
    RHS       C0000644   0.000000000000e0
    RHS       C0000645   1.731111111111e2
    RHS       C0000646   8.000000000000e2
    RHS       C0000647   8.000000000000e2
    RHS       C0000648   8.000000000000e2
    RHS       C0000649   8.000000000000e2
    RHS       C0000650   8.000000000000e2
    RHS       C0000651   8.000000000000e2
    RHS       C0000652   8.000000000000e2
    RHS       C0000653   8.000000000000e2
    RHS       C0000654   8.000000000000e2
    RHS       C0000655   8.000000000000e2
    RHS       C0000656   8.000000000000e2
    RHS       C0000657   8.000000000000e2
    RHS       C0000658   8.000000000000e2
    RHS       C0000659   8.000000000000e2
    RHS       C0000660   8.000000000000e2
    RHS       C0000661   8.000000000000e2
    RHS       C0000662   8.000000000000e2
    RHS       C0000663   8.000000000000e2
    RHS       C0000664   8.000000000000e2
    RHS       C0000665   8.000000000000e2
    RHS       C0000666   8.000000000000e2
    RHS       C0000667   8.000000000000e2
    RHS       C0000668   8.000000000000e2
    RHS       C0000669   8.000000000000e2
    RHS       C0000670   8.000000000000e2
    RHS       C0000671   8.000000000000e2
    RHS       C0000672   8.000000000000e2
    RHS       C0000673   8.000000000000e2
    RHS       C0000674   8.000000000000e2
    RHS       C0000675   8.000000000000e2
    RHS       C0000676   8.000000000000e2
    RHS       C0000677   8.000000000000e2
    RHS       C0000678   8.000000000000e2
    RHS       C0000679   8.000000000000e2
    RHS       C0000680   8.000000000000e2
    RHS       C0000681   8.000000000000e2
    RHS       C0000682   8.000000000000e2
    RHS       C0000683   8.000000000000e2
    RHS       C0000684   8.000000000000e2
    RHS       C0000685   8.000000000000e2
    RHS       C0000686   8.000000000000e2
    RHS       C0000687   8.000000000000e2
    RHS       C0000688   0.000000000000e0
    RHS       C0000689   2.596666666667e2
    RHS       C0000690   0.000000000000e0
    RHS       C0000691   1.200000000000e3
    RHS       C0000692   0.000000000000e0
    RHS       C0000693   1.200000000000e3
    RHS       C0000694   0.000000000000e0
    RHS       C0000695   1.200000000000e3
    RHS       C0000696   0.000000000000e0
    RHS       C0000697   1.200000000000e3
    RHS       C0000698   0.000000000000e0
    RHS       C0000699   1.200000000000e3
    RHS       C0000700   0.000000000000e0
    RHS       C0000701   1.200000000000e3
    RHS       C0000702   0.000000000000e0
    RHS       C0000703   1.200000000000e3
    RHS       C0000704   0.000000000000e0
    RHS       C0000705   1.200000000000e3
    RHS       C0000706   0.000000000000e0
    RHS       C0000707   1.200000000000e3
    RHS       C0000708   0.000000000000e0
    RHS       C0000709   1.200000000000e3
    RHS       C0000710   0.000000000000e0
    RHS       C0000711   1.200000000000e3
    RHS       C0000712   0.000000000000e0
    RHS       C0000713   1.200000000000e3
    RHS       C0000714   0.000000000000e0
    RHS       C0000715   1.200000000000e3
    RHS       C0000716   0.000000000000e0
    RHS       C0000717   1.200000000000e3
    RHS       C0000718   0.000000000000e0
    RHS       C0000719   1.200000000000e3
    RHS       C0000720   0.000000000000e0
    RHS       C0000721   1.200000000000e3
    RHS       C0000722   0.000000000000e0
    RHS       C0000723   1.200000000000e3
    RHS       C0000724   0.000000000000e0
    RHS       C0000725   1.200000000000e3
    RHS       C0000726   0.000000000000e0
    RHS       C0000727   1.200000000000e3
    RHS       C0000728   0.000000000000e0
    RHS       C0000729   1.200000000000e3
    RHS       C0000730   0.000000000000e0
    RHS       C0000731   1.200000000000e3
    RHS       C0000732   0.000000000000e0
    RHS       C0000733   1.200000000000e3
    RHS       C0000734   0.000000000000e0
    RHS       C0000735   1.200000000000e3
    RHS       C0000736   0.000000000000e0
    RHS       C0000737   1.200000000000e3
    RHS       C0000738   0.000000000000e0
    RHS       C0000739   1.200000000000e3
    RHS       C0000740   0.000000000000e0
    RHS       C0000741   1.200000000000e3
    RHS       C0000742   0.000000000000e0
    RHS       C0000743   1.200000000000e3
    RHS       C0000744   0.000000000000e0
    RHS       C0000745   1.200000000000e3
    RHS       C0000746   0.000000000000e0
    RHS       C0000747   1.200000000000e3
    RHS       C0000748   0.000000000000e0
    RHS       C0000749   1.200000000000e3
    RHS       C0000750   0.000000000000e0
    RHS       C0000751   1.200000000000e3
    RHS       C0000752   0.000000000000e0
    RHS       C0000753   1.200000000000e3
    RHS       C0000754   0.000000000000e0
    RHS       C0000755   1.200000000000e3
    RHS       C0000756   0.000000000000e0
    RHS       C0000757   1.200000000000e3
    RHS       C0000758   0.000000000000e0
    RHS       C0000759   1.200000000000e3
    RHS       C0000760   0.000000000000e0
    RHS       C0000761   1.200000000000e3
    RHS       C0000762   0.000000000000e0
    RHS       C0000763   1.200000000000e3
    RHS       C0000764   0.000000000000e0
    RHS       C0000765   1.200000000000e3
    RHS       C0000766   0.000000000000e0
    RHS       C0000767   1.200000000000e3
    RHS       C0000768   0.000000000000e0
    RHS       C0000769   1.200000000000e3
    RHS       C0000770   0.000000000000e0
    RHS       C0000771   1.200000000000e3
    RHS       C0000772   0.000000000000e0
    RHS       C0000773   1.200000000000e3
BOUNDS
 UP BND       X0000000   2.388933333333e3
 UP BND       X0000001   1.104000000000e4
 UP BND       X0000002   1.104000000000e4
 UP BND       X0000003   1.104000000000e4
 UP BND       X0000004   1.104000000000e4
 UP BND       X0000005   1.104000000000e4
 UP BND       X0000006   1.104000000000e4
 UP BND       X0000007   1.104000000000e4
 UP BND       X0000008   1.104000000000e4
 UP BND       X0000009   1.104000000000e4
 UP BND       X0000010   1.104000000000e4
 UP BND       X0000011   1.104000000000e4
 UP BND       X0000012   1.104000000000e4
 UP BND       X0000013   1.104000000000e4
 UP BND       X0000014   1.104000000000e4
 UP BND       X0000015   1.104000000000e4
 UP BND       X0000016   1.104000000000e4
 UP BND       X0000017   1.104000000000e4
 UP BND       X0000018   1.104000000000e4
 UP BND       X0000019   1.104000000000e4
 UP BND       X0000020   1.104000000000e4
 UP BND       X0000021   1.104000000000e4
 UP BND       X0000022   1.104000000000e4
 UP BND       X0000023   1.104000000000e4
 UP BND       X0000024   1.104000000000e4
 UP BND       X0000025   1.104000000000e4
 UP BND       X0000026   1.104000000000e4
 UP BND       X0000027   1.104000000000e4
 UP BND       X0000028   1.104000000000e4
 UP BND       X0000029   1.104000000000e4
 UP BND       X0000030   1.104000000000e4
 UP BND       X0000031   1.104000000000e4
 UP BND       X0000032   1.104000000000e4
 UP BND       X0000033   1.104000000000e4
 UP BND       X0000034   1.104000000000e4
 UP BND       X0000035   1.104000000000e4
 UP BND       X0000036   1.104000000000e4
 UP BND       X0000037   1.104000000000e4
 UP BND       X0000038   1.104000000000e4
 UP BND       X0000039   1.104000000000e4
 UP BND       X0000040   1.104000000000e4
 UP BND       X0000041   1.104000000000e4
 UP BND       X0000042   1.104000000000e4
 UP BND       X0000043   2.596666666667e2
 UP BND       X0000044   1.200000000000e3
 UP BND       X0000045   1.200000000000e3
 UP BND       X0000046   1.200000000000e3
 UP BND       X0000047   1.200000000000e3
 UP BND       X0000048   1.200000000000e3
 UP BND       X0000049   1.200000000000e3
 UP BND       X0000050   1.200000000000e3
 UP BND       X0000051   1.200000000000e3
 UP BND       X0000052   1.200000000000e3
 UP BND       X0000053   1.200000000000e3
 UP BND       X0000054   1.200000000000e3
 UP BND       X0000055   1.200000000000e3
 UP BND       X0000056   1.200000000000e3
 UP BND       X0000057   1.200000000000e3
 UP BND       X0000058   1.200000000000e3
 UP BND       X0000059   1.200000000000e3
 UP BND       X0000060   1.200000000000e3
 UP BND       X0000061   1.200000000000e3
 UP BND       X0000062   1.200000000000e3
 UP BND       X0000063   1.200000000000e3
 UP BND       X0000064   1.200000000000e3
 UP BND       X0000065   1.200000000000e3
 UP BND       X0000066   1.200000000000e3
 UP BND       X0000067   1.200000000000e3
 UP BND       X0000068   1.200000000000e3
 UP BND       X0000069   1.200000000000e3
 UP BND       X0000070   1.200000000000e3
 UP BND       X0000071   1.200000000000e3
 UP BND       X0000072   1.200000000000e3
 UP BND       X0000073   1.200000000000e3
 UP BND       X0000074   1.200000000000e3
 UP BND       X0000075   1.200000000000e3
 UP BND       X0000076   1.200000000000e3
 UP BND       X0000077   1.200000000000e3
 UP BND       X0000078   1.200000000000e3
 UP BND       X0000079   1.200000000000e3
 UP BND       X0000080   1.200000000000e3
 UP BND       X0000081   1.200000000000e3
 UP BND       X0000082   1.200000000000e3
 UP BND       X0000083   1.200000000000e3
 UP BND       X0000084   1.200000000000e3
 UP BND       X0000085   1.200000000000e3
 FX BND       X0000086   0.000000000000e0
 FX BND       X0000087   0.000000000000e0
 FX BND       X0000088   0.000000000000e0
 FX BND       X0000089   0.000000000000e0
 FX BND       X0000090   0.000000000000e0
 FX BND       X0000091   0.000000000000e0
 FX BND       X0000092   0.000000000000e0
 FX BND       X0000093   0.000000000000e0
 FX BND       X0000094   0.000000000000e0
 FX BND       X0000095   0.000000000000e0
 FX BND       X0000096   0.000000000000e0
 FX BND       X0000097   0.000000000000e0
 FX BND       X0000098   0.000000000000e0
 FX BND       X0000099   0.000000000000e0
 FX BND       X0000100   0.000000000000e0
 FX BND       X0000101   0.000000000000e0
 FX BND       X0000102   0.000000000000e0
 FX BND       X0000103   0.000000000000e0
 FX BND       X0000104   0.000000000000e0
 FX BND       X0000105   0.000000000000e0
 FX BND       X0000106   0.000000000000e0
 FX BND       X0000107   0.000000000000e0
 FX BND       X0000108   0.000000000000e0
 FX BND       X0000109   0.000000000000e0
 FX BND       X0000110   0.000000000000e0
 FX BND       X0000111   0.000000000000e0
 FX BND       X0000112   0.000000000000e0
 FX BND       X0000113   0.000000000000e0
 FX BND       X0000114   0.000000000000e0
 FX BND       X0000115   0.000000000000e0
 FX BND       X0000116   0.000000000000e0
 FX BND       X0000117   0.000000000000e0
 FX BND       X0000118   0.000000000000e0
 FX BND       X0000119   0.000000000000e0
 FX BND       X0000120   0.000000000000e0
 FX BND       X0000121   0.000000000000e0
 FX BND       X0000122   0.000000000000e0
 FX BND       X0000123   0.000000000000e0
 FX BND       X0000124   0.000000000000e0
 FX BND       X0000125   0.000000000000e0
 FX BND       X0000126   0.000000000000e0
 FX BND       X0000127   0.000000000000e0
 FX BND       X0000128   0.000000000000e0
 UP BND       X0000129   1.731111111111e2
 UP BND       X0000130   8.000000000000e2
 UP BND       X0000131   8.000000000000e2
 UP BND       X0000132   8.000000000000e2
 UP BND       X0000133   8.000000000000e2
 UP BND       X0000134   8.000000000000e2
 UP BND       X0000135   8.000000000000e2
 UP BND       X0000136   8.000000000000e2
 UP BND       X0000137   8.000000000000e2
 UP BND       X0000138   8.000000000000e2
 UP BND       X0000139   8.000000000000e2
 UP BND       X0000140   8.000000000000e2
 UP BND       X0000141   8.000000000000e2
 UP BND       X0000142   8.000000000000e2
 UP BND       X0000143   8.000000000000e2
 UP BND       X0000144   8.000000000000e2
 UP BND       X0000145   8.000000000000e2
 UP BND       X0000146   8.000000000000e2
 UP BND       X0000147   8.000000000000e2
 UP BND       X0000148   8.000000000000e2
 UP BND       X0000149   8.000000000000e2
 UP BND       X0000150   8.000000000000e2
 UP BND       X0000151   8.000000000000e2
 UP BND       X0000152   8.000000000000e2
 UP BND       X0000153   8.000000000000e2
 UP BND       X0000154   8.000000000000e2
 UP BND       X0000155   8.000000000000e2
 UP BND       X0000156   8.000000000000e2
 UP BND       X0000157   8.000000000000e2
 UP BND       X0000158   8.000000000000e2
 UP BND       X0000159   8.000000000000e2
 UP BND       X0000160   8.000000000000e2
 UP BND       X0000161   8.000000000000e2
 UP BND       X0000162   8.000000000000e2
 UP BND       X0000163   8.000000000000e2
 UP BND       X0000164   8.000000000000e2
 UP BND       X0000165   8.000000000000e2
 UP BND       X0000166   8.000000000000e2
 UP BND       X0000167   8.000000000000e2
 UP BND       X0000168   8.000000000000e2
 UP BND       X0000169   8.000000000000e2
 UP BND       X0000170   8.000000000000e2
 UP BND       X0000171   8.000000000000e2
 UP BND       X0000172   1.790000000000e4
 UP BND       X0000173   1.790000000000e4
 UP BND       X0000174   1.790000000000e4
 UP BND       X0000175   1.790000000000e4
 UP BND       X0000176   1.790000000000e4
 UP BND       X0000177   1.790000000000e4
 UP BND       X0000178   1.790000000000e4
 UP BND       X0000179   1.790000000000e4
 UP BND       X0000180   1.790000000000e4
 UP BND       X0000181   1.790000000000e4
 UP BND       X0000182   1.790000000000e4
 UP BND       X0000183   1.790000000000e4
 UP BND       X0000184   1.790000000000e4
 UP BND       X0000185   1.790000000000e4
 UP BND       X0000186   1.790000000000e4
 UP BND       X0000187   1.790000000000e4
 UP BND       X0000188   1.790000000000e4
 UP BND       X0000189   1.790000000000e4
 UP BND       X0000190   1.790000000000e4
 UP BND       X0000191   1.790000000000e4
 UP BND       X0000192   1.790000000000e4
 UP BND       X0000193   1.790000000000e4
 UP BND       X0000194   1.790000000000e4
 UP BND       X0000195   1.790000000000e4
 UP BND       X0000196   1.790000000000e4
 UP BND       X0000197   1.790000000000e4
 UP BND       X0000198   1.790000000000e4
 UP BND       X0000199   1.790000000000e4
 UP BND       X0000200   1.790000000000e4
 UP BND       X0000201   1.790000000000e4
 UP BND       X0000202   1.790000000000e4
 UP BND       X0000203   1.790000000000e4
 UP BND       X0000204   1.790000000000e4
 UP BND       X0000205   1.790000000000e4
 UP BND       X0000206   1.790000000000e4
 UP BND       X0000207   1.790000000000e4
 UP BND       X0000208   1.790000000000e4
 UP BND       X0000209   1.790000000000e4
 UP BND       X0000210   1.790000000000e4
 UP BND       X0000211   1.790000000000e4
 UP BND       X0000212   1.790000000000e4
 UP BND       X0000213   1.790000000000e4
 UP BND       X0000214   1.790000000000e4
 UP BND       X0000215   3.763200000000e3
 UP BND       X0000216   3.763200000000e3
 UP BND       X0000217   3.763200000000e3
 UP BND       X0000218   3.763200000000e3
 UP BND       X0000219   3.763200000000e3
 UP BND       X0000220   3.763200000000e3
 UP BND       X0000221   3.763200000000e3
 UP BND       X0000222   3.763200000000e3
 UP BND       X0000223   3.763200000000e3
 UP BND       X0000224   3.763200000000e3
 UP BND       X0000225   3.763200000000e3
 UP BND       X0000226   3.763200000000e3
 UP BND       X0000227   3.763200000000e3
 UP BND       X0000228   3.763200000000e3
 UP BND       X0000229   3.763200000000e3
 UP BND       X0000230   3.763200000000e3
 UP BND       X0000231   3.763200000000e3
 UP BND       X0000232   3.763200000000e3
 UP BND       X0000233   3.763200000000e3
 UP BND       X0000234   3.763200000000e3
 UP BND       X0000235   3.763200000000e3
 UP BND       X0000236   3.763200000000e3
 UP BND       X0000237   3.763200000000e3
 UP BND       X0000238   3.763200000000e3
 UP BND       X0000239   3.763200000000e3
 UP BND       X0000240   3.763200000000e3
 UP BND       X0000241   3.763200000000e3
 UP BND       X0000242   3.763200000000e3
 UP BND       X0000243   3.763200000000e3
 UP BND       X0000244   3.763200000000e3
 UP BND       X0000245   3.763200000000e3
 UP BND       X0000246   3.763200000000e3
 UP BND       X0000247   3.763200000000e3
 UP BND       X0000248   3.763200000000e3
 UP BND       X0000249   3.763200000000e3
 UP BND       X0000250   3.763200000000e3
 UP BND       X0000251   3.763200000000e3
 UP BND       X0000252   3.763200000000e3
 UP BND       X0000253   3.763200000000e3
 UP BND       X0000254   3.763200000000e3
 UP BND       X0000255   3.763200000000e3
 UP BND       X0000256   3.763200000000e3
 UP BND       X0000257   3.763200000000e3
 BV BND       X0000516
 BV BND       X0000517
 BV BND       X0000518
 BV BND       X0000519
 BV BND       X0000520
 BV BND       X0000521
 BV BND       X0000522
 BV BND       X0000523
 BV BND       X0000524
 BV BND       X0000525
 BV BND       X0000526
 BV BND       X0000527
 BV BND       X0000528
 BV BND       X0000529
 BV BND       X0000530
 BV BND       X0000531
 BV BND       X0000532
 BV BND       X0000533
 BV BND       X0000534
 BV BND       X0000535
 BV BND       X0000536
 BV BND       X0000537
 BV BND       X0000538
 BV BND       X0000539
 BV BND       X0000540
 BV BND       X0000541
 BV BND       X0000542
 BV BND       X0000543
 BV BND       X0000544
 BV BND       X0000545
 BV BND       X0000546
 BV BND       X0000547
 BV BND       X0000548
 BV BND       X0000549
 BV BND       X0000550
 BV BND       X0000551
 BV BND       X0000552
 BV BND       X0000553
 BV BND       X0000554
 BV BND       X0000555
 BV BND       X0000556
 BV BND       X0000557
 BV BND       X0000558
 BV BND       X0000559
 BV BND       X0000560
 BV BND       X0000561
 BV BND       X0000562
 BV BND       X0000563
 BV BND       X0000564
 BV BND       X0000565
 BV BND       X0000566
 BV BND       X0000567
 BV BND       X0000568
 BV BND       X0000569
 BV BND       X0000570
 BV BND       X0000571
 BV BND       X0000572
 BV BND       X0000573
 BV BND       X0000574
 BV BND       X0000575
 BV BND       X0000576
 BV BND       X0000577
 BV BND       X0000578
 BV BND       X0000579
 BV BND       X0000580
 BV BND       X0000581
 BV BND       X0000582
 BV BND       X0000583
 BV BND       X0000584
 BV BND       X0000585
 BV BND       X0000586
 BV BND       X0000587
 BV BND       X0000588
 BV BND       X0000589
 BV BND       X0000590
 BV BND       X0000591
 BV BND       X0000592
 BV BND       X0000593
 BV BND       X0000594
 BV BND       X0000595
 BV BND       X0000596
 BV BND       X0000597
 BV BND       X0000598
 BV BND       X0000599
 BV BND       X0000600
 BV BND       X0000601
 BV BND       X0000602
 BV BND       X0000603
 BV BND       X0000604
 BV BND       X0000605
 BV BND       X0000606
 BV BND       X0000607
 BV BND       X0000608
 BV BND       X0000609
 BV BND       X0000610
 BV BND       X0000611
 BV BND       X0000612
 BV BND       X0000613
 BV BND       X0000614
 BV BND       X0000615
 BV BND       X0000616
 BV BND       X0000617
 BV BND       X0000618
 BV BND       X0000619
 BV BND       X0000620
 BV BND       X0000621
 BV BND       X0000622
 BV BND       X0000623
 BV BND       X0000624
 BV BND       X0000625
 BV BND       X0000626
 BV BND       X0000627
 BV BND       X0000628
 BV BND       X0000629
 BV BND       X0000630
 BV BND       X0000631
 BV BND       X0000632
 BV BND       X0000633
 BV BND       X0000634
 BV BND       X0000635
 BV BND       X0000636
 BV BND       X0000637
 BV BND       X0000638
 BV BND       X0000639
 BV BND       X0000640
 BV BND       X0000641
 BV BND       X0000642
 BV BND       X0000643
 BV BND       X0000644
 BV BND       X0000645
 BV BND       X0000646
 BV BND       X0000647
 BV BND       X0000648
 BV BND       X0000649
 BV BND       X0000650
 BV BND       X0000651
 BV BND       X0000652
 BV BND       X0000653
 BV BND       X0000654
 BV BND       X0000655
 BV BND       X0000656
 BV BND       X0000657
 BV BND       X0000658
 BV BND       X0000659
 BV BND       X0000660
 BV BND       X0000661
 BV BND       X0000662
 BV BND       X0000663
 BV BND       X0000664
 BV BND       X0000665
 BV BND       X0000666
 BV BND       X0000667
 BV BND       X0000668
 BV BND       X0000669
 BV BND       X0000670
 BV BND       X0000671
 BV BND       X0000672
 BV BND       X0000673
 BV BND       X0000674
 BV BND       X0000675
 BV BND       X0000676
 BV BND       X0000677
 BV BND       X0000678
 BV BND       X0000679
 BV BND       X0000680
 BV BND       X0000681
 BV BND       X0000682
 BV BND       X0000683
 BV BND       X0000684
 BV BND       X0000685
 BV BND       X0000686
 BV BND       X0000687
ENDATA
